<?xml version="1.0"?>
<VTKFile type="UnstructuredGrid" version="0.1" byte_order="LittleEndian">
  <UnstructuredGrid>
    <Piece NumberOfPoints="1826" NumberOfCells="499">
      <PointData>
        <DataArray type="Float32" Name="stress_xx" NumberOfComponents="1" format="ascii">
  4.025E+006  3.411E+006  3.300E+006  3.339E+006  3.406E+006  3.561E+006  3.612E+006  3.727E+006  3.684E+006  3.396E+006  2.628E+006  2.598E+006  2.707E+006  2.744E+006  3.106E+006  2.517E+006  2.330E+006  2.279E+006  2.240E+006  2.318E+006  2.311E+006  2.377E+006  2.336E+006  2.362E+006  1.731E+006  1.624E+006  1.657E+006  1.666E+006  1.812E+006  1.438E+006  1.313E+006  1.254E+006  1.198E+006  1.226E+006  1.202E+006  1.231E+006  1.199E+006  8.946E+005  6.419E+005  5.771E+005  5.711E+005  5.610E+005  5.802E+004  4.468E+004  4.016E+004  3.015E+004  2.385E+004  1.753E+004  9.567E+003  1.533E+003 -7.000E+003 -2.654E+005 -2.536E+004  2.933E+005  5.554E+005  6.617E+005 -2.245E+005 -7.763E+003  2.429E+005  4.309E+005  5.067E+005 -1.220E+005  1.693E+004  1.772E+005  2.869E+005  3.285E+005 -2.554E+003 -3.299E+003  9.772E+002  6.361E+001 -1.722E+003  3.469E+005  3.853E+005  2.943E+005  3.406E+005  3.933E+005  4.756E+005  5.917E+005  6.211E+005  6.833E+005  3.642E+005  3.422E+005  4.278E+005  6.043E+005  6.878E+005  2.766E+005  3.390E+005  2.798E+005  3.159E+005  3.460E+005  4.065E+005  4.986E+005  5.154E+005  5.695E+005  2.340E+005  2.353E+005  2.814E+005  3.957E+005  4.479E+005  1.447E+005  1.837E+005  1.434E+005  1.617E+005  1.748E+005  2.068E+005  2.561E+005  2.646E+005  2.924E+005  8.337E+004  8.213E+004  9.452E+004  1.324E+005  1.496E+005  4.065E+003  5.354E+003  5.531E+003  5.359E+003  3.662E+003  2.631E+002 -1.261E+003 -9.440E+002 -2.426E+002 -1.037E+005 -7.640E+004  2.461E+004  1.065E+005  1.572E+005 -7.435E+004 -7.362E+004  5.958E+003  6.032E+004  9.922E+004 -3.691E+004 -4.059E+004  1.335E+004  4.180E+004  6.456E+004  1.219E+003 -2.114E+003 -1.608E+002  5.286E+002  2.653E+002  8.367E+004  7.414E+004  8.459E+004  8.442E+004  7.866E+004  1.048E+005  1.252E+005  1.394E+005  1.472E+005  5.855E+004  7.433E+004  6.481E+004  1.078E+005  1.243E+005  6.420E+004  6.964E+004  9.086E+004  8.865E+004  7.817E+004  1.026E+005  1.177E+005  1.272E+005  1.307E+005  3.893E+004  6.273E+004  5.095E+004  8.162E+004  9.259E+004  3.009E+004  3.362E+004  4.627E+004  4.158E+004  3.088E+004  4.396E+004  5.141E+004  5.608E+004  5.860E+004  1.058E+004  2.439E+004  1.563E+004  2.619E+004  3.043E+004 -1.872E+003  8.835E+002  6.097E+003  2.420E+003  5.098E+002  1.087E+003  1.272E+003  1.575E+003  2.022E+003 -4.545E+002  4.051E+003  1.420E+004  3.305E+004  4.240E+004 -3.546E+003 -2.360E+003  3.849E+003  1.477E+004  2.207E+004 -2.672E+003  2.133E+003  6.180E+003  1.349E+004  1.691E+004  3.332E+003 -2.290E+002  2.387E+002  2.501E+002  3.067E+002  4.584E+003  6.849E+003  4.985E+003  6.156E+003  1.032E+004  1.173E+004  1.527E+004  1.671E+004  1.697E+004  1.019E+004  1.197E+004  1.644E+004  2.229E+004  2.374E+004  6.318E+003  1.043E+004  1.115E+004  1.211E+004  1.611E+004  1.758E+004  2.268E+004  2.269E+004  2.402E+004  7.234E+003  8.758E+003  1.135E+004  1.633E+004  1.711E+004  3.808E+003  5.080E+003  3.544E+003  3.616E+003  6.356E+003  6.275E+003  9.325E+003  8.559E+003  1.073E+004  1.250E+003  2.569E+003  2.695E+003  5.554E+003  5.349E+003 -1.769E+003  1.032E+002  2.470E+003  2.564E+003  9.311E+002  1.674E+003  2.568E+003  2.230E+003  5.128E+002 -4.177E+003 -3.810E+003  3.653E+002  3.458E+003  3.165E+003 -2.856E+003 -3.412E+003  2.678E+002  1.860E+003  1.932E+003 -1.697E+003 -1.488E+003  1.203E+003  2.177E+003  2.387E+003  1.788E+003 -3.573E+002  1.115E+003 -8.177E+002  6.751E+002  3.378E+003  3.165E+003  3.538E+003  3.461E+003  2.420E+003  2.457E+003  2.279E+003  2.032E+003  1.940E+003  1.432E+003  2.155E+003  1.321E+003  1.487E+003  2.011E+003  2.323E+003  2.685E+003  2.874E+003  3.128E+003  1.599E+003  2.998E+003  2.362E+003  3.726E+003  2.743E+003  9.156E+002  2.443E+003  1.668E+003  2.602E+003  2.915E+003  8.610E+002  1.400E+003  2.707E+003  2.048E+003  1.258E+003  1.916E+003  3.037E+003  1.942E+003  2.149E+003  4.532E+002  1.283E+003  1.183E+003  2.986E+003  1.174E+003 -2.991E+002 -4.815E+002 -9.437E+002 -8.626E+002 -3.740E+002  1.208E+003  3.525E+003  1.719E+003 -1.560E+003  3.712E+002  1.618E+002 -7.030E+002 -2.201E+002 -1.336E+003 -4.813E+002 -9.025E+001 -8.068E+002 -9.972E+002 -1.146E+003  9.147E+002 -4.876E+002 -3.370E+002 -2.367E+002 -6.004E+002 -2.845E+003 -1.907E+002  1.998E+002 -8.011E+002  7.205E+002  7.414E+001 -3.779E+002 -2.938E+002 -8.395E+002 -3.638E+002 -1.869E+003 -2.726E+003 -1.804E+003 -2.840E+002  5.444E+002 -2.436E+002 -3.649E+002 -1.857E+003 -8.583E+001 -4.089E+001 -1.363E+002 -1.135E+003 -7.664E+002 -7.558E+002 -1.390E+003 -1.925E+003 -1.540E+003  4.253E+002  1.071E+002  8.193E+002  8.370E+002 -5.789E+002  4.950E+002 -6.084E+002 -4.714E+002  1.994E+003  1.098E+003  2.446E+003  2.964E+002  1.446E+002 -3.757E+002  5.234E+002  2.104E+003  1.336E+003  1.120E+003  1.065E+003 -4.965E+002  2.587E+003  1.520E+003 -8.026E+002 -7.900E+002 -8.614E+002  8.113E+001  8.331E+002 -1.717E+003 -2.386E+003  2.795E+002 -4.983E+002 -1.726E+003 -1.678E+003 -3.009E+003 -7.748E+002 -4.918E+002 -1.207E+003 -1.038E+003 -1.824E+003  1.782E+003 -6.344E+002 -1.304E+003 -4.386E+002 -1.859E+003 -5.723E+003 -5.734E+002 -5.021E+002 -6.935E+002  4.881E+002  7.086E+002 -3.217E+002 -4.138E+002 -1.583E+003 -2.134E+003 -3.754E+003 -4.422E+003 -4.413E+003 -2.043E+003  2.687E+002 -1.039E+003 -2.314E+003 -4.690E+003 -1.994E+003 -1.581E+001 -3.762E+002 -1.875E+003 -1.620E+003 -2.678E+003 -3.507E+003 -5.257E+003 -4.236E+003 -2.531E+003 -5.941E+002  8.935E+002  6.149E+002 -2.054E+003 -4.877E+002 -1.539E+003 -5.236E+002  3.166E+003  1.920E+003  3.479E+003  5.018E+002  2.655E+002 -4.654E+002  1.272E+003  3.426E+003  1.643E+003  2.391E+003  7.521E+002  5.520E+002  7.037E+003  3.555E+003 -1.043E+003 -2.865E+002 -1.356E+002  3.755E+000 -2.557E+002 -1.784E+003 -1.738E+003  6.263E+002 -6.972E+002 -3.443E+003 -5.128E+003 -5.927E+003 -7.660E+002 -7.295E+002 -2.653E+003 -3.557E+003 -5.033E+003  2.029E+003 -1.021E+003 -1.541E+003 -1.485E+003 -2.533E+003 -6.567E+003 -3.817E+002  3.355E+002  5.590E+002  5.145E+002  6.860E+002 -5.742E+002 -8.879E+002 -3.264E+003 -4.168E+003 -6.870E+003 -7.489E+003 -9.655E+003 -8.610E+003  1.628E+001 -1.579E+003 -4.246E+003 -7.666E+003 -7.815E+003 -1.137E+003 -1.159E+003 -2.624E+003 -2.818E+003 -5.133E+003 -5.181E+003 -7.983E+003 -7.274E+003 -8.738E+003  1.551E+001  1.079E+003  8.848E+002 -1.346E+003 -1.078E+003  5.656E+001 -2.333E+001  3.704E+003  2.213E+003  6.091E+003  1.293E+003  4.550E+003 -3.028E+002  4.814E+003  2.989E+003  4.034E+003  4.984E+003  4.974E+003  3.898E+003  1.827E+003  1.136E+003  4.126E+002  4.869E+002  1.627E+003  2.365E+003  3.515E+003  2.030E+003  2.605E+002  3.981E+002 -1.025E+003 -5.136E+003 -8.723E+003 -1.066E+004 -1.929E+002 -1.279E+003 -3.541E+003 -6.006E+003 -8.128E+003  5.300E+002 -1.076E+003 -1.723E+003 -2.093E+003 -3.461E+003 -4.413E+003 -2.022E+003  9.601E+002  2.089E+002  5.171E+002  1.384E+003 -6.160E+002 -1.209E+003 -3.656E+003 -5.046E+003 -7.435E+003 -9.269E+003 -1.049E+004 -1.362E+004  8.858E+001 -1.816E+003 -5.050E+003 -8.730E+003 -1.227E+004 -1.557E+003 -1.442E+003 -2.890E+003 -3.336E+003 -5.864E+003 -6.051E+003 -8.709E+003 -8.786E+003 -1.203E+004  7.524E+001  1.237E+003  4.665E+002 -1.535E+003 -3.444E+003  4.171E+002  3.930E+002  4.103E+003  2.322E+003  5.756E+003  2.114E+003  4.514E+003  6.382E+002  2.808E+003  4.198E+003  5.004E+003  4.707E+003  5.621E+003  4.360E+003  1.995E+003  8.960E+002  9.866E+002  1.553E+003  1.128E+003  1.934E+003  2.394E+003  2.281E+003  2.317E+003  6.037E+002 -1.089E+003 -6.083E+003 -9.769E+003 -1.376E+004 -3.489E+002 -1.444E+003 -3.799E+003 -6.645E+003 -8.324E+003  1.193E+003 -1.407E+003 -1.590E+003 -3.291E+003 -3.203E+003 -6.092E+003 -1.647E+003  4.377E+002 -5.204E+002  1.087E+003  1.268E+003 -6.629E+002 -1.532E+003 -4.275E+003 -5.878E+003 -8.558E+003 -1.052E+004 -1.210E+004 -1.538E+004 -1.225E+002 -2.080E+003 -5.792E+003 -1.014E+004 -1.260E+004 -1.847E+003 -1.664E+003 -3.088E+003 -3.730E+003 -6.714E+003 -6.853E+003 -1.006E+004 -9.435E+003 -1.156E+004  5.827E+001  1.252E+003  5.162E+002 -9.513E+002 -2.813E+003  1.293E+003  1.058E+003  4.686E+003  2.851E+003  6.603E+003  2.389E+003  6.742E+003  7.915E+002  4.870E+003  4.355E+003  6.795E+003  6.392E+003  7.159E+003  5.335E+003  4.955E+003  4.960E+003  6.347E+003  3.915E+003  3.132E+003  4.195E+003  3.186E+003  3.031E+003  1.842E+003  6.613E+002 -1.184E+003 -5.967E+003 -9.402E+003 -1.241E+004 -5.143E+002 -1.434E+003 -4.329E+003 -6.444E+003 -1.018E+004  1.326E+003 -1.102E+003 -1.495E+003 -3.337E+003 -2.807E+003 -7.685E+003 -1.619E+003  1.060E+003  1.077E+002  1.528E+003  1.684E+003 -1.035E+003 -1.349E+003 -4.580E+003 -5.258E+003 -1.001E+004 -1.190E+004 -1.516E+004 -1.610E+004 -6.487E+001 -2.289E+003 -6.008E+003 -1.138E+004 -1.495E+004 -2.547E+003 -1.733E+003 -3.990E+003 -4.044E+003 -7.510E+003 -7.732E+003 -1.156E+004 -1.072E+004 -1.480E+004  1.236E+002  1.977E+003  7.653E+002 -2.148E+003 -3.920E+003  9.399E+002  2.980E+002  6.615E+003  3.422E+003  7.680E+003  3.071E+003  6.596E+003  1.472E+003  4.348E+003  6.389E+003  7.271E+003  7.932E+003  6.793E+003  5.539E+003  3.055E+003  3.326E+003  2.964E+003  3.737E+003  4.742E+003  5.197E+003  5.471E+003  4.558E+003  3.120E+003  1.057E+003 -1.184E+003 -7.290E+003 -1.271E+004 -1.635E+004 -6.833E+002 -1.746E+003 -4.960E+003 -9.309E+003 -1.287E+004  2.033E+003 -1.397E+003 -2.848E+003 -3.472E+003 -6.058E+003 -8.670E+003 -3.269E+003  7.103E+002 -4.247E+002  1.583E+003  2.009E+003 -1.003E+003 -1.989E+003 -5.786E+003 -8.108E+003 -1.338E+004 -1.804E+004 -2.095E+004 -2.434E+004  2.751E+002 -2.972E+003 -8.604E+003 -1.584E+004 -2.020E+004 -1.878E+003 -2.254E+003 -4.669E+003 -5.719E+003 -9.957E+003 -1.046E+004 -1.484E+004 -1.452E+004 -1.792E+004 -7.650E+001  1.554E+003  1.436E+002 -3.792E+003 -4.728E+003  2.032E+002  2.487E+002  5.826E+003  3.139E+003  8.975E+003  2.150E+003  5.060E+003 -8.942E+002  6.230E+003  6.128E+003  6.634E+003  6.640E+003  8.789E+003  6.872E+003  7.157E+003  4.360E+003  1.910E+003  1.270E+003 -1.644E+003  1.508E+003  6.282E+003  3.826E+003  1.232E+003  8.458E+002 -1.343E+003 -9.989E+003 -1.605E+004 -2.498E+004 -5.957E+002 -2.474E+003 -6.991E+003 -1.332E+004 -1.806E+004  1.966E+003 -1.126E+003 -4.430E+003 -4.240E+003 -9.465E+003 -1.115E+004 -5.756E+003  2.357E+003 -2.159E+002  2.596E+003  2.029E+003 -9.698E+002 -1.641E+003 -7.183E+003 -1.001E+004 -1.652E+004 -1.843E+004 -2.759E+004 -3.230E+004 -2.276E+002 -3.584E+003 -1.072E+004 -1.908E+004 -2.534E+004 -3.096E+003 -2.682E+003 -5.856E+003 -7.473E+003 -1.392E+004 -1.294E+004 -1.803E+004 -1.898E+004 -2.598E+004  2.563E+002  1.469E+003  1.159E+002 -5.365E+003 -6.640E+003  1.631E+003 -2.203E+002  7.610E+003  3.068E+003  1.082E+004  4.119E+002  6.801E+003 -5.529E+002  6.170E+003  6.533E+003  7.876E+003  6.988E+003  5.879E+003  8.457E+003 -4.645E+002  3.159E+003  2.676E+003  1.635E+003  1.093E+002  2.456E+003  5.108E+003  5.339E+003  4.074E+003  1.402E+003 -2.516E+003 -1.143E+004 -2.094E+004 -4.252E+004 -5.095E+002 -2.891E+003 -7.485E+003 -1.497E+004 -2.702E+004  4.588E+003  4.743E+002 -6.440E+003 -4.776E+003 -1.305E+004 -7.891E+003 -5.942E+003  1.165E+001 -8.902E+002  6.775E+002  3.760E+003 -5.482E+002 -1.634E+003 -7.546E+003 -1.159E+004 -1.717E+004 -2.374E+004 -3.462E+004 -4.530E+004  1.861E+001 -3.785E+003 -1.242E+004 -2.200E+004 -3.286E+004 -2.994E+003 -2.928E+003 -7.207E+003 -8.079E+003 -1.351E+004 -1.530E+004 -2.128E+004 -2.096E+004 -2.551E+004  6.123E+002  1.882E+003  8.760E+002 -7.946E+003 -3.495E+003  7.454E+003  4.244E+003  1.049E+004  6.685E+003  1.370E+004  3.039E+003  2.594E+003 -1.307E+003  1.317E+004  8.846E+002  9.622E+003  7.964E+003  4.544E+003  7.157E+003 -9.900E+002  7.690E+001  1.005E+003  1.158E+003 -1.110E+003 -3.817E+003 -1.696E+003 -4.295E+003 -7.239E+003  4.623E+002 -3.114E+003 -1.118E+004 -1.949E+004 -3.207E+004  1.973E+002 -2.166E+003 -6.635E+003 -1.478E+004 -2.341E+004 -1.111E+003  5.375E+002 -1.649E+003 -3.933E+003 -9.806E+003  1.656E+004 -3.097E+001 -6.565E+002 -1.126E+003 -1.840E+003  3.041E+003 -1.047E+003 -1.902E+003 -8.272E+003 -9.542E+003 -1.639E+004 -1.375E+004 -3.239E+004 -3.864E+004 -5.453E+002 -4.491E+003 -1.086E+004 -1.429E+004 -3.256E+004 -5.349E+003 -3.804E+003 -7.332E+003 -7.517E+003 -1.282E+004 -1.233E+004 -1.608E+004 -1.908E+004 -2.747E+004  2.109E+003  2.065E+003  1.317E+003 -1.009E+003 -5.587E+003  7.549E+003  5.897E+003  1.400E+004  1.063E+004  1.823E+004  6.497E+003  9.974E+003  2.875E+003  1.225E+004 -4.948E+003  8.858E+003  1.542E+004  9.461E+003  8.073E+003 -3.860E+003 -2.987E+003 -1.638E+002  5.916E+002  1.100E+003  1.872E+003  2.462E+003  2.790E+002 -6.357E+003  1.267E+003 -2.844E+003 -1.238E+004 -1.987E+004 -3.216E+004 -6.099E+002 -2.376E+003 -7.347E+003 -1.635E+004 -2.512E+004  2.131E+003  8.827E+002 -1.567E+003 -4.486E+003 -1.110E+004  1.277E+004  4.321E+003 -1.012E+003  6.946E+002 -1.383E+003  3.364E+003 -1.070E+003 -2.336E+003 -8.676E+003 -1.096E+004 -1.998E+004 -2.327E+004 -4.260E+004 -4.642E+004 -3.466E+002 -4.766E+003 -1.396E+004 -2.135E+004 -3.591E+004 -3.400E+003 -3.428E+003 -7.860E+003 -9.567E+003 -1.689E+004 -1.586E+004 -2.139E+004 -2.343E+004 -3.229E+004  1.097E+003  1.516E+003  1.277E+003 -7.383E+003 -3.086E+003  7.704E+003  6.002E+003  1.360E+004  1.100E+004  1.914E+004  5.504E+003  4.112E+003 -9.582E+002  1.754E+004  1.389E+003  1.014E+004  1.172E+004  9.201E+003  8.373E+003 -4.189E+003 -2.482E+003 -6.012E+002 -2.921E+003 -2.653E+003 -2.263E+003  1.277E+003 -3.546E+003 -8.807E+003  1.655E+003 -3.331E+003 -1.493E+004 -2.731E+004 -4.170E+004 -8.383E+002 -3.088E+003 -7.724E+003 -2.111E+004 -2.782E+004  4.574E+003  3.975E+000 -4.590E+003 -4.358E+003 -1.152E+004  9.400E+003  4.161E+003 -1.908E+002  1.145E+002 -2.882E+003  4.488E+003 -1.038E+003 -1.997E+003 -9.290E+003 -1.267E+004 -2.145E+004 -2.648E+004 -4.236E+004 -5.126E+004  1.684E+001 -5.166E+003 -1.441E+004 -2.555E+004 -4.025E+004 -4.556E+003 -4.007E+003 -9.475E+003 -9.941E+003 -1.665E+004 -1.883E+004 -2.610E+004 -2.548E+004 -3.409E+004  1.378E+003  3.282E+003  1.542E+003 -7.354E+003 -6.417E+003  1.150E+004  8.359E+003  1.598E+004  1.054E+004  2.134E+004  4.679E+003  5.041E+003 -3.295E+003  1.740E+004  1.394E+003  1.075E+004  1.448E+004  7.222E+003  1.430E+004  2.215E+002 -1.770E+003 -5.760E+002 -3.070E+003 -3.531E+003 -3.916E+003 -1.562E+003 -3.079E+003 -3.053E+003  7.722E+002 -3.363E+003 -1.607E+004 -2.685E+004 -4.288E+004  2.276E+002 -3.141E+003 -1.031E+004 -1.990E+004 -2.956E+004 -5.478E+002  1.319E+003 -3.493E+003 -4.879E+003 -1.305E+004  2.217E+004  5.253E+003 -1.737E+003 -3.878E+002 -3.076E+003  3.680E+003 -1.501E+003 -1.618E+003 -1.127E+004 -1.394E+004 -2.552E+004 -2.674E+004 -4.423E+004 -5.005E+004 -1.063E+003 -6.527E+003 -1.588E+004 -2.596E+004 -4.177E+004 -6.325E+003 -5.331E+003 -1.184E+004 -1.102E+004 -1.823E+004 -2.002E+004 -2.852E+004 -2.943E+004 -3.942E+004  4.827E+003  2.174E+003  1.329E+003 -9.839E+003 -5.452E+003  1.530E+004  7.896E+003  1.827E+004  1.279E+004  2.341E+004  5.284E+003  5.086E+003 -7.849E+001  1.969E+004  8.756E+002  9.004E+003  1.930E+004  9.593E+003  1.206E+004 -5.682E+003 -6.172E+003 -6.122E+003 -4.350E+003 -4.009E+002 -2.780E+003 -2.592E+003 -1.780E+003 -5.090E+003  2.317E+003 -4.349E+003 -1.582E+004 -3.236E+004 -4.975E+004 -1.945E+003 -2.779E+003 -1.097E+004 -2.207E+004 -3.439E+004  2.642E+003  8.434E+002 -4.313E+003 -5.840E+003 -1.668E+004  1.632E+004  5.367E+003  1.196E+003 -1.453E+003 -2.618E+003  6.033E+003 -5.176E+002 -1.913E+003 -1.106E+004 -1.619E+004 -2.440E+004 -2.719E+004 -4.671E+004 -5.734E+004  6.366E+001 -5.912E+003 -1.699E+004 -2.892E+004 -4.741E+004 -6.973E+003 -5.493E+003 -1.152E+004 -1.207E+004 -1.855E+004 -2.209E+004 -3.297E+004 -3.442E+004 -4.203E+004  4.905E+003  3.626E+003  1.066E+003 -7.623E+003 -7.825E+003  1.404E+004  7.841E+003  1.886E+004  1.281E+004  1.998E+004  5.173E+003  1.003E+004 -2.301E+003  1.846E+004 -5.036E+003  1.122E+004  1.704E+004  9.775E+003  1.223E+004 -1.179E+004 -6.552E+003 -5.217E+003 -2.857E+003  9.417E+002 -2.966E+003 -1.640E+003 -6.286E+003 -9.014E+003  1.241E+003 -4.567E+003 -1.768E+004 -3.554E+004 -5.003E+004  3.307E+002 -3.410E+003 -1.152E+004 -2.654E+004 -3.317E+004 -7.123E+002  1.063E+002 -6.321E+003 -5.665E+003 -1.578E+004  2.100E+004  2.515E+003 -2.877E+003  9.542E+002 -2.341E+003  3.841E+003 -8.762E+002 -1.176E+003 -1.184E+004 -1.635E+004 -2.659E+004 -3.038E+004 -4.772E+004 -5.671E+004 -1.756E+003 -6.252E+003 -1.913E+004 -2.884E+004 -4.559E+004 -6.441E+003 -5.851E+003 -1.198E+004 -1.241E+004 -2.192E+004 -2.096E+004 -3.207E+004 -3.140E+004 -4.111E+004  4.921E+003  2.716E+003  3.658E+003 -1.000E+004 -3.693E+003  2.221E+004  1.327E+004  1.929E+004  1.388E+004  2.921E+004  9.049E+003  9.798E+003  4.767E+003  2.829E+004 -1.378E+003  1.048E+004  1.712E+004  1.152E+004  1.796E+004 -6.405E+003 -8.359E+003 -7.307E+003 -5.339E+003 -6.619E+003 -3.791E+003  1.050E+003 -2.738E+003 -7.944E+003  1.754E+003 -4.944E+003 -1.713E+004 -3.682E+004 -4.879E+004  9.165E+001 -3.735E+003 -1.255E+004 -2.814E+004 -3.384E+004  2.347E+003  2.870E+002 -4.234E+003 -5.086E+003 -1.584E+004  1.932E+004  2.639E+003 -2.874E+002 -3.599E+002 -3.524E+003  5.488E+003 -1.184E+003 -2.715E+003 -1.518E+004 -1.942E+004 -3.035E+004 -2.844E+004 -5.011E+004 -5.648E+004 -7.715E+002 -8.292E+003 -2.060E+004 -3.231E+004 -4.609E+004 -7.733E+003 -6.880E+003 -1.495E+004 -1.465E+004 -2.427E+004 -2.349E+004 -3.752E+004 -3.387E+004 -4.271E+004  4.580E+003  4.019E+003  2.451E+002 -8.525E+003 -3.785E+003  1.758E+004  1.026E+004  2.277E+004  1.654E+004  2.639E+004  7.510E+003  1.511E+004  1.287E+003  2.791E+004  8.430E+002  1.525E+004  1.924E+004  1.684E+004  1.687E+004 -1.177E+004 -8.144E+003 -5.117E+003 -5.293E+003 -1.569E+003 -3.746E+003  2.078E+003 -2.236E+003 -1.004E+004  2.238E+003 -6.357E+003 -2.129E+004 -3.813E+004 -5.614E+004 -1.621E+003 -3.924E+003 -1.310E+004 -2.657E+004 -3.736E+004  4.422E+003 -1.343E+003 -7.683E+003 -3.844E+003 -1.696E+004  2.471E+004  8.468E+003  1.206E+003 -3.156E+003 -1.719E+003  7.218E+003 -1.439E+003 -3.887E+003 -1.357E+004 -2.133E+004 -2.990E+004 -3.828E+004 -5.190E+004 -6.385E+004  9.313E+002 -7.419E+003 -2.066E+004 -3.794E+004 -4.889E+004 -7.397E+003 -6.452E+003 -1.313E+004 -1.439E+004 -2.095E+004 -2.743E+004 -3.840E+004 -3.510E+004 -4.149E+004  1.322E+003  5.705E+003  7.056E+003 -1.010E+004 -4.876E+003  1.479E+004  1.332E+004  2.548E+004  1.737E+004  2.938E+004  9.688E+003  1.366E+004  5.721E+002  2.399E+004 -8.481E+002  1.397E+004  1.721E+004  1.652E+004  1.739E+004  3.576E+003 -5.603E+003 -5.998E+003 -5.398E+003 -1.012E+004 -2.990E+003  7.264E+002 -5.052E+002 -3.756E+003  4.856E+002 -6.778E+003 -2.126E+004 -3.720E+004 -6.067E+004 -5.277E+002 -3.881E+003 -1.522E+004 -2.809E+004 -3.876E+004  1.733E+003 -1.781E+003 -5.949E+003 -7.283E+003 -1.615E+004  2.641E+004  9.848E+003 -1.593E+003 -2.375E+002 -4.624E+003  5.796E+003 -1.427E+003 -1.950E+003 -1.523E+004 -1.600E+004 -3.317E+004 -3.405E+004 -5.891E+004 -6.246E+004 -1.752E+003 -7.908E+003 -1.984E+004 -3.401E+004 -4.827E+004 -6.799E+003 -6.971E+003 -1.638E+004 -1.240E+004 -2.392E+004 -2.532E+004 -4.193E+004 -3.875E+004 -4.502E+004  2.614E+003  6.936E+003  6.066E+003 -5.930E+003 -2.704E+003  1.358E+004  1.284E+004  3.023E+004  1.754E+004  3.674E+004  1.424E+004  2.034E+004  4.293E+003  3.039E+004 -3.487E+003  1.773E+004  2.505E+004  1.763E+004  2.115E+004 -1.114E+004 -8.267E+003 -2.237E+003 -7.650E+003 -8.503E+003 -6.956E+003 -7.086E+000  2.871E+003 -6.773E+002  2.332E+003 -3.901E+003 -2.056E+004 -3.061E+004 -5.731E+004 -2.260E+003 -5.507E+003 -1.273E+004 -2.780E+004 -4.152E+004  4.092E+003 -4.253E+003 -2.262E+003 -3.280E+003 -1.226E+004  2.605E+004  1.096E+004 -1.452E+003  4.050E+003 -6.873E+003  9.403E+003 -7.762E+002 -4.698E+003 -1.142E+004 -1.384E+004 -2.223E+004 -1.759E+004 -4.497E+004 -5.846E+004  6.105E+002 -5.316E+003 -1.422E+004 -2.078E+004 -3.941E+004 -1.139E+004 -3.263E+003 -8.433E+003 -8.317E+003 -1.565E+004 -1.287E+004 -2.426E+004 -1.805E+004 -3.084E+004  3.546E+003  1.128E+004  1.595E+004  6.966E+003  1.168E+004  2.055E+004  1.402E+004  2.914E+004  2.682E+004  4.175E+004  2.206E+004  3.918E+004  1.763E+004  3.936E+004  1.855E+003  2.019E+004  2.644E+004  3.226E+004  2.792E+004 -2.691E+003 -4.766E+003 -6.858E+003 -4.348E+003 -2.311E+003 -2.036E+003  7.086E+003 -5.221E+003 -7.736E+003 -7.073E+003 -6.556E+003 -8.428E+003 -5.195E+003 -2.242E+004 -1.051E+003 -7.480E+003 -8.693E+003 -1.128E+004 -1.728E+004  1.395E+002 -6.069E+003 -7.252E+003  6.451E+003 -5.372E+003  3.304E+004  8.113E+003 -4.234E+003  2.651E+003 -9.292E+003 -8.018E+003  7.059E+002  1.996E+003  5.492E+003  2.493E+004  2.624E+004  3.733E+004  3.512E+004  3.106E+004  3.947E+001  8.726E+003  2.487E+004  4.231E+004  4.696E+004  2.294E+003  7.009E+003  8.044E+003  2.278E+004  2.262E+004  3.700E+004  3.889E+004  4.825E+004  4.884E+004  8.005E+003  3.230E+004  5.121E+004  5.840E+004  7.609E+004  1.572E+004  2.506E+004  5.032E+004  4.287E+004  7.004E+004  5.729E+004  7.198E+004  6.371E+004  9.714E+004 -1.206E+004  2.295E+004  4.193E+004  4.016E+004  5.259E+004 -1.566E+004 -1.628E+004 -1.147E+004 -6.933E+003 -7.257E+003 -8.091E+003 -5.928E+003  2.679E+003 -1.629E+003  1.858E+003 -9.117E+002  4.547E+004  9.918E+004  1.299E+005 -1.440E+004 -4.098E+003  3.041E+004  7.329E+004  9.912E+004 -3.761E+003 -6.338E+003  1.957E+004  4.795E+004  6.282E+004  3.146E+004  1.753E+004  8.170E+003  1.248E+003 -1.017E+003 -1.009E+004 -2.105E+004 -2.517E+004  3.353E+004  9.974E+004  1.965E+005  3.046E+005  3.246E+005  3.677E+005 -2.335E+003  3.911E+004  1.724E+005  3.357E+005  3.936E+005 -2.361E+003  6.215E+004  9.279E+004  1.686E+005  2.368E+005  2.946E+005  3.525E+005  3.782E+005  4.105E+005 -8.857E+003  1.047E+005  2.349E+005  3.244E+005  3.861E+005 -6.225E+002  5.113E+004  1.083E+005  1.572E+005  2.258E+005  2.413E+005  2.808E+005  2.848E+005  3.337E+005 -2.241E+004  5.188E+004  1.185E+005  1.582E+005  1.876E+005 -3.379E+004 -1.937E+004 -2.310E+003  6.305E+003  2.896E+003  7.903E+003  1.543E+004  9.850E+003  1.456E+004
        </DataArray>
        <DataArray type="Float32" Name="stress_yy" NumberOfComponents="1" format="ascii">
  4.035E+006  3.546E+006  3.370E+006  3.441E+006  3.538E+006  3.681E+006  3.764E+006  3.855E+006  3.846E+006  3.278E+006  2.553E+006  2.551E+006  2.655E+006  2.691E+006  3.102E+006  2.612E+006  2.369E+006  2.336E+006  2.318E+006  2.381E+006  2.396E+006  2.443E+006  2.425E+006  2.286E+006  1.696E+006  1.620E+006  1.654E+006  1.664E+006  1.799E+006  1.487E+006  1.324E+006  1.272E+006  1.227E+006  1.242E+006  1.229E+006  1.246E+006  1.226E+006  8.619E+005  6.258E+005  5.738E+005  5.683E+005  5.582E+005  5.628E+004  4.496E+004  3.882E+004  3.006E+004  2.356E+004  1.706E+004  9.698E+003  1.418E+003 -7.164E+003 -3.304E+005 -2.384E+005 -2.342E+005 -2.295E+005 -2.273E+005 -2.923E+005 -1.729E+005 -1.563E+005 -1.494E+005 -1.479E+005 -1.364E+005 -3.140E+004 -2.080E+003  1.003E+004  1.470E+004  1.861E+003  5.019E+002  1.117E+003 -9.351E+001 -1.093E+003  4.324E+005  4.286E+005  3.400E+005  3.344E+005  3.328E+005  3.241E+005  3.388E+005  3.240E+005  3.397E+005  4.334E+005  3.917E+005  3.907E+005  4.085E+005  4.132E+005  2.738E+005  3.260E+005  2.759E+005  2.663E+005  2.547E+005  2.458E+005  2.652E+005  2.464E+005  2.644E+005  2.075E+005  2.329E+005  2.046E+005  2.054E+005  2.025E+005  6.316E+004  1.244E+005  1.108E+005  9.706E+004  7.981E+004  6.712E+004  7.116E+004  6.027E+004  6.696E+004  4.887E+004  7.335E+004  5.387E+004  4.769E+004  4.334E+004  6.216E+003  6.377E+003  5.704E+003  4.556E+003  2.501E+003  2.346E+002 -7.798E+002 -1.687E+003 -2.464E+003 -1.081E+005 -9.782E+004 -8.507E+004 -9.226E+004 -9.344E+004 -7.324E+004 -8.030E+004 -5.988E+004 -6.282E+004 -6.221E+004 -4.323E+004 -4.281E+004 -2.011E+004 -2.271E+004 -1.994E+004  8.972E+002 -1.417E+003 -8.951E+002 -8.833E+002 -7.028E+002  1.068E+005  9.373E+004  9.124E+004  8.842E+004  8.025E+004  8.516E+004  8.611E+004  8.999E+004  9.164E+004  6.198E+004  6.437E+004  4.779E+004  5.336E+004  5.368E+004  6.559E+004  7.021E+004  8.260E+004  7.766E+004  6.353E+004  7.146E+004  7.187E+004  7.223E+004  6.975E+004  3.206E+004  5.092E+004  3.311E+004  3.978E+004  3.967E+004  2.524E+004  3.133E+004  4.058E+004  3.411E+004  1.909E+004  2.276E+004  2.301E+004  2.219E+004  2.247E+004  6.501E+003  1.789E+004  7.760E+003  9.195E+003  1.029E+004  7.670E+001  2.357E+002  2.256E+003  2.536E+002 -5.616E+002 -5.040E+002 -7.284E+002  1.629E+002  1.303E+003 -7.722E+002  9.612E+002  2.353E+003  3.864E+003  5.033E+003 -3.828E+003 -4.881E+003 -4.098E+003 -4.804E+003 -4.407E+003 -8.016E+002  1.797E+003  2.596E+003  3.340E+003  3.072E+003  1.925E+003 -6.856E+001  1.197E+002 -2.761E+001 -4.092E+002  4.672E+003  5.172E+003  3.442E+003  1.777E+003  2.161E+003  7.327E+002  7.418E+002 -2.090E+002 -1.347E+003  1.146E+004  1.258E+004  1.127E+004  1.167E+004  1.053E+004  4.455E+003  8.129E+003  9.686E+003  7.361E+003  8.546E+003  7.707E+003  9.575E+003  8.753E+003  9.188E+003  5.244E+003  8.016E+003  6.135E+003  7.514E+003  7.665E+003 -7.578E+002  1.434E+003  1.475E+003 -7.755E+001  7.403E+002 -8.388E+001  2.305E+003  1.271E+003  3.272E+003  2.639E+001  1.419E+003  9.542E+001  2.444E+003  2.297E+003  3.535E+002  8.860E+002  1.885E+003  1.976E+003  1.094E+003  1.414E+003  2.007E+003  1.253E+003 -2.206E+002 -4.435E+003 -4.274E+003 -3.553E+003 -4.008E+003 -4.153E+003 -3.098E+003 -3.342E+003 -2.527E+003 -3.207E+003 -3.996E+003 -2.883E+003 -1.926E+003 -5.153E+002 -1.312E+003 -8.370E+002  1.746E+003  8.679E+001  7.530E+002  8.843E+002  6.811E+002  4.478E+003  4.064E+003  4.034E+003  3.952E+003  3.386E+003  3.439E+003  3.700E+003  3.216E+003  3.753E+003  1.593E+003  1.725E+003  1.271E+003  1.204E+003  2.142E+003  2.761E+003  3.102E+003  2.674E+003  3.232E+003  1.904E+003  3.192E+003  2.192E+003  3.763E+003  2.439E+003  1.907E+003  2.740E+003  1.869E+003  3.574E+003  3.458E+003  3.090E+003  3.129E+003  3.925E+003  3.181E+003  2.171E+003  2.952E+003  5.664E+003  2.782E+003  4.403E+003  1.679E+003  2.297E+003  1.516E+003  4.334E+003  3.189E+003  5.825E+002  4.075E+002 -1.645E+002 -3.455E+002 -4.299E+002  1.117E+003  3.177E+003  1.759E+003 -3.759E+002  3.476E+002  2.435E+002  1.837E+002  6.638E+002  3.233E+002 -7.091E+002 -2.511E+002 -4.564E+002 -1.843E+002 -9.547E+002  4.569E+002 -8.871E+002  3.519E+002  7.207E+002  6.657E+002 -1.713E+003  6.856E+002  5.896E+002  8.035E+002  1.297E+003  1.031E+002 -7.926E+001  5.902E+002  1.950E+002  9.034E+002 -2.444E+002 -7.913E+002  7.795E+002  2.910E+003  1.118E+003  6.555E+002  7.971E+002  8.164E+001  2.514E+003  5.856E+002  6.791E+002 -5.870E+002  4.000E+002 -9.965E+001 -1.305E+002 -6.154E+002  4.621E+002  2.564E+003  2.236E+003  3.768E+003  3.071E+003  9.494E+002  2.999E+003  2.560E+003  3.220E+003  6.954E+003  4.003E+003  5.768E+003  2.529E+003  1.923E+003  1.449E+003  2.930E+003  3.802E+003  5.479E+003  4.185E+003  1.841E+003  1.830E+003  8.010E+002  1.782E+003  1.494E+003  1.285E+003  9.255E+002  6.961E+002  1.181E+002 -6.651E+002 -5.057E+002 -1.517E+002 -2.811E+002 -4.866E+002  8.811E+001 -1.143E+003 -1.078E+003 -7.711E+002 -6.540E+002  1.071E+002 -5.342E+002  4.143E+002 -9.440E+002 -8.519E+002  6.643E+002 -6.788E+002 -2.445E+003  1.604E+003  9.667E+002  1.114E+002  5.597E+002  9.428E+002  4.209E+002  1.277E+003  7.247E+002  1.492E+003  6.568E+002  9.260E+002  9.706E+002  2.858E+003  8.087E+002  2.353E+002  4.765E+002 -2.777E+002  2.829E+003  6.789E+002  7.004E+002 -9.531E+002  5.472E+002 -7.417E+002 -5.755E+001 -1.439E+003  3.688E+002  1.791E+003  1.894E+003  4.415E+003  5.051E+003  2.585E+003  3.727E+003  2.597E+003  4.276E+003  9.137E+003  6.847E+003  1.016E+004  5.725E+003  5.756E+003  3.869E+003  5.584E+003  4.467E+003  6.157E+003  7.558E+003  4.255E+003  3.476E+003  3.634E+003  2.825E+003  1.218E+003  1.710E+003  1.706E+003  1.696E+003  1.468E+003  6.506E+001 -4.539E+002  1.162E+002 -1.346E+002 -2.726E+002  1.953E+002 -1.822E+002 -1.002E+003 -7.663E+002 -1.164E+003 -6.536E+002 -1.157E+003  6.669E+002 -1.492E+003 -5.645E+002  7.957E+002  4.655E+002 -3.593E+003  1.418E+003  1.643E+003  2.514E+003  1.489E+003  1.078E+003  4.807E+002  1.339E+003  6.905E+002  2.010E+003  6.899E+002  2.013E+003  6.209E+002  3.069E+003  7.611E+002  4.627E+002  5.248E+002  1.868E+002  1.692E+003 -4.848E+002  1.658E+002 -1.137E+003  6.346E+002 -1.746E+003  9.198E+002 -1.837E+003  6.556E+002 -1.821E+003  3.242E+003  6.044E+003  7.196E+003  7.518E+003  7.991E+003  5.124E+003  6.111E+003  1.152E+004  8.786E+003  1.491E+004  8.590E+003  1.619E+004  6.977E+003  1.541E+004  6.385E+003  9.996E+003  1.108E+004  1.221E+004  1.091E+004  7.779E+002  1.128E+003  1.292E+003  1.535E+003  2.528E+003  3.377E+003  4.526E+003  3.436E+003  2.050E+003 -3.824E+002 -1.840E+002 -4.647E+002 -6.519E+002 -8.554E+001 -4.783E+002 -1.265E+003 -1.345E+003 -1.224E+003 -2.493E+003 -2.016E+003 -1.655E+003  6.239E+001  1.043E+003  1.814E+002 -2.766E+003 -2.642E+002  2.201E+003  1.956E+003  1.443E+003  2.138E+003  5.264E+002  1.482E+003  7.998E+002  2.154E+003  1.073E+003  1.455E+003  1.558E+003  1.092E+003  6.486E+002  5.423E+002  4.491E+002  4.329E+002 -8.362E+002 -1.626E+003 -3.805E-001 -1.173E+003  3.955E+002 -2.045E+003  5.017E+002 -1.290E+003 -4.202E+002 -4.004E+003  4.257E+003  6.781E+003  6.872E+003  7.715E+003  6.551E+003  7.810E+003  7.325E+003  1.268E+004  9.297E+003  1.434E+004  9.763E+003  1.545E+004  8.951E+003  1.386E+004  8.839E+003  1.096E+004  1.058E+004  1.176E+004  1.079E+004  6.045E+002  4.269E+002  5.853E+002  1.673E+003  1.861E+003  1.771E+003  1.484E+003  1.633E+003  1.642E+003 -1.696E+002 -5.404E+001 -7.755E+002 -4.681E+002 -2.655E+003 -6.207E+002 -1.327E+003 -1.242E+003 -1.745E+003 -2.852E+002 -1.255E+003 -1.755E+003  3.157E+002 -1.506E+002  2.349E+002 -2.767E+003  1.651E+003  2.199E+003  1.436E+003  2.960E+002  1.974E+003  9.452E+002  1.644E+003  8.886E+002  2.026E+003  1.438E+003  2.744E+003  4.275E+002 -1.123E+003  7.789E+002  8.090E+002  5.734E+002  2.871E+002 -9.659E+002 -1.228E+003  2.944E+002 -7.692E+002  9.138E+002 -1.910E+003  8.083E+002 -2.457E+003 -2.808E+001 -3.165E+003  5.276E+003  8.166E+003  8.006E+003  9.882E+003  5.510E+003  1.060E+004  1.045E+004  1.565E+004  1.145E+004  1.646E+004  1.098E+004  2.011E+004  8.227E+003  1.309E+004  9.967E+003  1.333E+004  1.286E+004  1.544E+004  1.060E+004  6.043E+003  5.718E+003  5.930E+003  3.803E+003  2.609E+003  3.699E+003  3.762E+003  3.074E+003  2.373E+003 -5.807E+002 -2.987E+002 -4.056E+002 -7.713E+002  1.250E+003 -1.105E+003 -1.814E+003 -1.838E+003 -1.355E+003 -2.412E+003 -2.498E+003 -1.649E+003  7.481E+002 -3.435E-001  7.536E+002 -2.154E+003  3.127E+003  1.871E+003  3.451E+003  4.108E+002  2.902E+003  7.440E+002  2.402E+003  1.024E+003  3.084E+003  1.188E+003  2.709E+003  4.126E+002  2.915E+003  1.236E+003  9.680E+002  7.857E+002  6.180E+002 -7.692E+002 -1.924E+003  8.738E+002 -1.540E+003  1.251E+003 -2.396E+003  8.901E+002 -2.084E+003 -6.259E+002 -5.588E+003  7.340E+003  1.042E+004  9.554E+003  9.122E+003  6.762E+003  1.320E+004  1.169E+004  2.007E+004  1.301E+004  1.952E+004  1.256E+004  1.973E+004  1.079E+004  1.539E+004  1.520E+004  1.701E+004  1.455E+004  1.415E+004  1.171E+004  3.897E+003  4.726E+003  4.826E+003  3.970E+003  3.052E+003  4.280E+003  5.353E+003  4.400E+003  2.951E+003 -7.869E+001 -1.319E+002 -5.126E+002 -1.124E+003  1.078E+003 -1.607E+003 -1.929E+003 -1.825E+003 -1.696E+003 -2.994E+003 -1.289E+003 -2.904E+003 -4.492E+002  1.239E+003  2.376E+002 -4.940E+003  1.996E+003  1.645E+003  3.249E+003  2.124E+003  2.755E+003  8.585E+002  2.227E+003  1.185E+003  3.186E+003  1.564E+003  2.107E+003  1.814E+002 -2.617E+003  1.514E+003  7.926E+002  7.371E+002  4.048E+002 -1.810E+003 -7.432E+002  2.940E+002 -1.896E+003  6.522E+002 -2.691E+003  7.590E+002 -2.608E+003  4.601E+002 -3.438E+003  6.380E+003  1.066E+004  1.099E+004  1.169E+004  1.353E+004  1.104E+004  1.160E+004  2.016E+004  1.526E+004  2.287E+004  1.484E+004  2.365E+004  1.382E+004  2.760E+004  1.063E+004  1.684E+004  1.764E+004  1.911E+004  2.227E+004  1.726E+003  2.671E+003  3.244E+003  3.365E+003  2.018E+003  2.890E+003  4.659E+003  5.659E+003  6.567E+003 -5.753E+002 -5.916E+001 -8.870E+002  8.628E+002  1.889E+003 -9.705E+002 -1.969E+003 -3.056E+003 -2.464E+003 -5.022E+003 -7.444E+002 -2.336E+003  4.801E+002  3.252E+003 -8.489E+002 -7.210E+003  1.987E+003  5.013E+003  5.451E+003  2.592E+003  2.998E+003  1.326E+003  2.966E+003  1.625E+003  4.526E+003  1.817E+003  6.230E+003 -1.510E+003  7.105E+003  1.794E+003  9.609E+002  3.528E+002 -3.907E+002  4.539E+003 -9.962E+002  6.786E+002 -1.892E+003  3.878E+002 -6.940E+003  1.102E+003 -4.246E+003 -9.345E-001 -8.348E+003  8.490E+003  1.229E+004  1.375E+004  1.318E+004  1.516E+004  1.523E+004  1.462E+004  2.480E+004  1.695E+004  2.924E+004  1.316E+004  3.002E+004  1.686E+004  3.049E+004  1.489E+004  2.041E+004  1.946E+004  2.110E+004  2.213E+004  7.496E+002  5.662E+003  6.622E+003  5.532E+003  4.034E+003  6.440E+003  9.559E+003  7.823E+003  4.495E+003 -4.748E+002 -6.434E+002 -1.464E+003 -1.780E+003 -1.255E+004 -2.122E+003 -2.742E+003 -1.542E+003  3.844E+001 -1.976E+004  6.583E+002 -1.139E+003 -4.608E+002  5.872E+003 -1.160E+004 -4.096E+003 -2.354E+002 -9.827E+001 -3.099E+003  3.012E+003  5.380E+003  2.390E+003  4.686E+003  2.145E+003  3.251E+003  4.922E+003  5.417E+003 -2.596E+003 -1.663E+004  1.546E+003  1.189E+003  5.063E+002  2.721E+001 -8.562E+003 -2.251E+003  1.489E+003 -3.351E+003  6.276E+002 -3.927E+003 -1.332E+003 -5.040E+003  9.254E+002 -6.051E+003  1.066E+004  1.511E+004  1.356E+004  1.236E+004  2.066E+004  2.664E+004  2.230E+004  3.331E+004  2.178E+004  2.751E+004  1.837E+004  2.719E+004  1.955E+004  4.149E+004  1.370E+004  2.136E+004  1.648E+004  1.439E+004  2.670E+004 -8.264E+003 -6.206E+003 -4.215E+003 -2.451E+003 -1.924E+003 -6.702E+003 -9.574E+003 -5.568E+003 -1.006E+003 -1.496E+003 -6.610E+002 -1.278E+003  1.547E+002 -1.660E+003 -1.822E+003 -1.377E+003 -1.580E+003 -3.029E+003 -6.753E+003 -2.285E+003  7.903E+002  8.420E+002  3.533E+003 -1.355E+003  5.290E+003 -7.665E+003 -4.869E+003 -7.403E+003  2.756E+003  4.979E+003  2.841E+003  5.951E+003  2.502E+003  5.374E+003  4.252E+003  1.260E+004 -5.162E+003 -2.965E+003  1.755E+003  1.261E+003  1.630E+003  3.748E+003 -2.546E+003 -3.736E+003  7.017E+002 -3.419E+003  3.093E+003 -2.316E+003  6.863E+002 -6.416E+003 -1.003E+003 -2.889E+003  1.016E+004  1.690E+004  1.712E+004  1.410E+004  2.449E+004  1.992E+004  2.379E+004  4.102E+004  3.027E+004  4.225E+004  2.088E+004  2.733E+004  1.968E+004  4.664E+004  1.085E+004  2.409E+004  2.642E+004  1.926E+004  2.975E+004 -1.143E+003 -5.517E+003 -7.523E+003 -8.066E+003 -7.734E+003 -4.742E+003 -1.098E+003 -1.525E+003 -2.930E+003 -7.484E+002 -3.850E+002 -8.881E+002  1.709E+003  4.920E+003 -2.687E+003 -2.046E+003 -1.758E+003 -3.709E+003 -5.013E+003 -2.424E+003  1.235E+003  1.505E+003  3.256E+003 -3.905E+003  7.798E+003 -4.711E+003 -5.938E+003 -6.372E+003  2.702E+003  5.278E+003  2.688E+003  5.633E+003  3.706E+003  7.034E+003  4.095E+003  7.526E+003 -8.002E+003 -2.860E+003  2.147E+003  1.543E+003  1.336E+003  2.556E+003 -1.212E+003 -1.342E+003  2.166E+003 -2.727E+003  1.328E+003 -5.031E+003  1.534E+003 -3.780E+003 -1.417E+003 -8.404E+003  1.144E+004  1.743E+004  1.850E+004  1.614E+004  2.395E+004  2.588E+004  2.741E+004  4.219E+004  3.171E+004  4.130E+004  2.378E+004  3.367E+004  2.038E+004  4.451E+004  1.698E+004  2.770E+004  2.546E+004  2.114E+004  2.407E+004 -2.605E+003 -5.242E+003 -6.510E+003 -6.568E+003 -4.805E+003 -7.765E+003 -8.716E+003 -8.550E+003 -7.837E+003 -2.851E+002 -5.658E+002 -1.884E+003 -9.876E+002 -2.221E+003 -3.443E+003 -1.927E+003 -1.254E+002 -3.900E+003 -6.916E+003  4.702E+002  7.896E+002 -1.235E+003  6.113E+003 -3.000E+003  4.767E+003 -4.986E+003 -4.592E+003 -9.122E+003  2.252E+003  7.380E+003  3.332E+003  6.843E+003  3.673E+003  6.642E+003  5.245E+003  6.747E+003  4.067E+002 -4.987E+003  2.145E+003  1.390E+003  1.828E+003  1.102E+003 -2.028E+003 -3.884E+003  1.641E+003 -5.118E+003  1.309E+003 -4.274E+003  6.229E+000 -5.184E+003  3.222E+003 -4.871E+003  1.386E+004  2.003E+004  2.039E+004  1.615E+004  3.161E+004  3.486E+004  3.064E+004  4.540E+004  3.370E+004  4.716E+004  2.494E+004  2.943E+004  2.060E+004  6.456E+004  2.186E+004  2.860E+004  2.975E+004  1.852E+004  4.351E+004 -1.827E+003 -5.533E+003 -5.750E+003 -6.395E+003 -5.318E+003 -6.782E+003 -6.458E+003 -3.850E+003 -3.743E+002 -1.915E+003 -6.205E+002 -1.221E+003  1.993E+003 -3.290E+003 -2.422E+003 -2.397E+003 -2.657E+003 -2.228E+003 -7.900E+003 -4.294E+003  1.231E+003  8.960E+002  5.046E+003 -1.972E+003  1.121E+004 -4.169E+003 -6.846E+003 -7.157E+003  3.287E+003  6.783E+003  3.910E+003  8.268E+003  4.592E+003  9.468E+003  2.191E+003  7.919E+003 -1.192E+002  7.513E+003  1.930E+003  1.666E+003  2.925E+003  2.498E+003  2.197E+003 -4.917E+003  1.151E+003 -5.395E+003  3.335E+003 -3.385E+003  2.925E+003 -6.088E+003 -1.237E+003 -1.124E+004  1.766E+004  2.119E+004  2.524E+004  1.759E+004  2.914E+004  3.735E+004  3.307E+004  5.122E+004  3.950E+004  5.830E+004  2.951E+004  3.702E+004  2.374E+004  5.743E+004  2.500E+004  3.236E+004  3.820E+004  2.571E+004  3.409E+004 -1.687E+003 -5.565E+003 -7.959E+003 -8.761E+003 -7.739E+003 -8.688E+003 -7.342E+003 -5.107E+003 -3.181E+003 -7.417E+002 -1.838E+003 -8.706E+002  1.930E+001 -2.528E+003 -4.844E+003 -1.914E+003 -3.229E+003 -2.602E+003 -9.596E+003 -4.603E+003  7.391E+002 -3.126E+002  6.081E+003 -4.494E+003  1.017E+004 -4.601E+003 -5.329E+003 -9.489E+003  4.229E+003  8.890E+003  4.404E+003  8.072E+003  4.513E+003  6.619E+003  6.294E+003  9.650E+003  3.609E+003  2.280E+002  3.408E+003  2.106E+003  2.070E+003  1.570E+003 -3.158E+003 -4.995E+003  3.545E+002 -5.397E+003  1.243E+003 -4.546E+003 -6.980E+000 -8.291E+003 -1.650E+003 -1.076E+004  1.753E+004  2.187E+004  2.520E+004  2.101E+004  3.243E+004  3.342E+004  3.236E+004  5.034E+004  3.752E+004  5.093E+004  2.924E+004  4.214E+004  2.684E+004  6.649E+004  1.672E+004  3.152E+004  3.494E+004  2.480E+004  4.434E+004 -8.312E+003 -8.261E+003 -8.963E+003 -5.989E+003 -2.200E+003 -7.129E+003 -9.263E+003 -6.798E+003 -1.196E+003 -1.981E+003 -1.254E+003 -1.532E+003 -1.497E+003 -1.937E+003 -1.648E+003 -2.323E+003 -1.060E+003 -7.143E+003 -7.563E+003 -6.739E+003  6.576E+002 -3.682E+003  7.957E+003 -2.505E+003  6.093E+003 -8.882E+003 -5.859E+003 -1.065E+004  5.290E+003  7.690E+003  4.869E+003  9.226E+003  4.853E+003  9.525E+003  4.250E+003  9.201E+003 -7.965E+002  3.571E+003  1.831E+003  2.096E+003  1.485E+003  4.403E+003  1.839E+003 -3.979E+003  1.176E+003 -5.929E+003  1.664E+003 -6.354E+003  2.361E+003 -6.272E+003 -1.942E+001 -8.472E+003  1.942E+004  2.405E+004  2.601E+004  2.282E+004  3.945E+004  4.850E+004  4.168E+004  5.780E+004  4.260E+004  5.873E+004  3.404E+004  4.929E+004  3.511E+004  8.189E+004  1.985E+004  3.304E+004  3.522E+004  2.913E+004  5.190E+004 -1.245E+004 -1.398E+004 -1.326E+004 -1.023E+004 -8.667E+003 -1.051E+004 -1.087E+004 -5.534E+003 -2.595E+003 -1.355E+003 -1.780E+003 -7.709E+001 -1.974E+002  5.484E+003 -3.541E+003 -2.159E+003 -3.631E+003 -6.467E+003 -8.038E+003 -2.682E+003  2.150E+002 -3.852E+002  7.962E+003 -3.635E+003  7.544E+003 -9.384E+003 -7.151E+003 -1.199E+004  5.067E+003  9.314E+003  5.158E+003  9.422E+003  5.298E+003  9.602E+003  5.246E+003  1.572E+004 -8.849E+002  8.944E+003  2.088E+003  2.560E+003  2.742E+003  3.396E+003  4.062E+003 -6.696E+003  1.533E+003 -5.833E+003  2.662E+003 -6.079E+003  2.746E+003 -9.777E+003  3.862E+002 -1.056E+004  1.917E+004  2.806E+004  3.123E+004  2.197E+004  3.899E+004  4.149E+004  3.993E+004  6.258E+004  4.824E+004  6.825E+004  3.611E+004  4.934E+004  3.318E+004  8.162E+004  2.340E+004  3.856E+004  4.201E+004  3.458E+004  4.970E+004 -7.489E+003 -1.084E+004 -1.206E+004 -1.247E+004 -1.116E+004 -1.061E+004 -5.586E+003 -5.948E+003 -5.612E+003 -1.202E+003 -2.670E+003 -2.512E+003 -3.036E+003 -5.482E+003 -5.670E+003 -2.773E+003 -2.902E+003 -4.109E+003 -1.237E+004 -4.061E+003 -2.655E+003 -3.687E+003  9.022E+003 -3.248E+003  1.146E+004 -7.136E+003 -6.314E+003 -1.374E+004  7.403E+003  1.141E+004  5.240E+003  9.976E+003  6.030E+003  7.090E+003  7.796E+003  5.904E+003  5.074E+003 -3.160E+003  5.458E+003  2.432E+003  3.041E+003 -1.202E+003  1.283E+003 -4.200E+003  2.856E+003 -6.479E+003  2.853E+001 -4.967E+003  1.928E+001 -7.638E+003  3.640E+003 -2.379E+003  2.137E+004  3.246E+004  3.236E+004  2.682E+004  4.301E+004  4.784E+004  4.759E+004  7.127E+004  5.144E+004  6.340E+004  3.813E+004  5.559E+004  3.387E+004  7.672E+004  2.641E+004  4.513E+004  3.957E+004  3.403E+004  5.020E+004 -3.199E+003 -1.211E+004 -1.359E+004 -9.337E+003 -9.299E+003 -1.047E+004 -1.327E+004 -5.639E+003 -4.002E+002 -3.206E+003 -2.264E+003 -2.363E+003  1.392E+003 -5.876E+003 -6.702E+003 -2.685E+003 -2.735E+003 -5.893E+003 -1.261E+004 -8.082E+003 -2.409E+003 -2.459E+003  6.726E+003 -3.073E+003  1.274E+004 -8.972E+003 -8.799E+003 -1.202E+004  3.816E+003  1.195E+004  7.986E+003  1.291E+004  6.773E+003  1.465E+004  3.222E+003  9.683E+003 -4.111E+003  1.426E+004  4.062E+003  3.763E+003  4.717E+003  1.769E+003  1.113E+004 -3.953E+003  2.685E+003 -8.430E+003  6.203E+003 -4.535E+003  6.007E+002 -1.669E+004 -2.442E+003 -6.561E+003  2.142E+004  3.717E+004  3.543E+004  3.172E+004  4.641E+004  4.578E+004  5.024E+004  8.422E+004  5.615E+004  7.525E+004  4.415E+004  6.756E+004  3.950E+004  8.875E+004  2.913E+004  5.011E+004  4.904E+004  3.731E+004  5.675E+004 -4.188E+003 -9.170E+003 -1.069E+004 -1.419E+004 -1.346E+004 -1.284E+004 -9.955E+003 -7.179E+002  3.857E+003 -3.048E+003 -1.851E+003 -2.968E+003  2.268E+003 -6.276E+003 -8.310E+003 -6.000E+003 -5.196E+003 -8.398E+003 -2.057E+004 -4.658E+003 -4.739E+003 -2.227E+003  1.189E+004 -2.699E+003  1.417E+004 -5.871E+003 -5.941E+003 -9.705E+003  3.577E+003  1.196E+004  4.558E+003  9.333E+003  5.085E+003  1.108E+004  5.559E+003  1.037E+004  6.463E+003  6.261E+003  5.645E+003  4.816E+003  5.286E+003  2.356E+003  8.076E+003 -3.575E+003  9.563E+003 -1.719E+003  6.211E+003 -4.295E+003  6.488E+003 -5.463E+003  1.255E+004 -3.951E+003  2.636E+004  4.633E+004  3.951E+004  3.508E+004  5.364E+004  5.879E+004  5.925E+004  8.822E+004  6.289E+004  7.512E+004  4.906E+004  7.857E+004  4.298E+004  8.979E+004  3.643E+004  5.649E+004  5.011E+004  4.920E+004  6.118E+004 -4.685E+003 -1.023E+004 -1.343E+004 -6.963E+003 -1.424E+002 -9.634E+003 -1.058E+004 -9.537E+003  1.603E+003 -6.225E+003 -9.044E+002 -2.179E+003  4.553E+003 -1.393E+004 -7.074E+003 -8.509E+003 -7.638E+003 -1.300E+004 -2.501E+004 -1.148E+004 -1.171E+004 -1.299E+004  4.174E+003 -8.565E+003  9.673E+003 -1.272E+004 -1.253E+004 -1.195E+004 -7.513E+002  2.296E+004  2.642E+004  2.578E+004  2.261E+004  2.934E+004  2.130E+004  1.390E+004  2.570E+004  2.059E+004  3.017E+004  3.208E+004  2.995E+004  2.161E+004  2.870E+004  3.007E+004  3.233E+004  3.178E+004  3.889E+004  2.614E+004  3.561E+004  2.113E+004  2.555E+004  1.663E+004  5.019E+004  7.378E+004  6.930E+004  4.988E+004  7.588E+004  7.339E+004  7.729E+004  1.125E+005  8.171E+004  9.837E+004  6.514E+004  7.662E+004  6.078E+004  1.297E+005  2.592E+004  5.725E+004  5.742E+004  3.822E+004  7.422E+004 -2.340E+004 -2.502E+004 -2.541E+004 -1.891E+004 -1.687E+004 -1.975E+004 -2.064E+004 -5.883E+003 -1.121E+003 -2.748E+004 -2.660E+004 -1.660E+004 -2.763E+004 -2.766E+004 -5.150E+004 -3.843E+004 -3.517E+004 -3.443E+004 -3.382E+004 -5.507E+004 -2.955E+004 -2.238E+004 -1.758E+004 -1.277E+004  1.740E+004 -7.290E+002  3.551E+003 -9.077E+003  7.093E+003  7.589E+004  6.531E+004  6.507E+004  5.278E+004  5.945E+004  5.586E+004  8.478E+004  5.795E+004  7.835E+004  1.492E+005  1.749E+005  1.686E+005  1.891E+005  1.760E+005  2.166E+005  2.841E+005  2.800E+005  2.848E+005  2.736E+005  2.708E+005  2.681E+005  2.558E+005  2.589E+005  2.220E+005  3.425E+005  3.253E+005  3.130E+005  3.149E+005  2.279E+005  3.135E+005  3.769E+005  3.438E+005  3.513E+005  3.119E+005  3.311E+005  2.977E+005  3.305E+005  1.256E+005  2.067E+005  1.970E+005  1.904E+005  1.964E+005 -7.035E+002  4.815E+003  1.184E+004  1.822E+004  1.873E+004  1.373E+004  1.410E+004  1.827E+004  2.071E+004
        </DataArray>
        <DataArray type="Float32" Name="stress_zz" NumberOfComponents="1" format="ascii">
  6.545E+006  5.823E+006  5.443E+006  5.559E+006  5.715E+006  5.918E+006  6.062E+006  6.180E+006  6.187E+006  5.630E+006  4.455E+006  4.517E+006  4.718E+006  4.790E+006  5.047E+006  4.315E+006  3.848E+006  3.799E+006  3.781E+006  3.862E+006  3.899E+006  3.956E+006  3.943E+006  3.895E+006  2.916E+006  2.808E+006  2.863E+006  2.880E+006  2.941E+006  2.479E+006  2.175E+006  2.100E+006  2.042E+006  2.057E+006  2.049E+006  2.065E+006  2.045E+006  1.475E+006  1.082E+006  1.002E+006  9.906E+005  9.728E+005  9.547E+004  7.832E+004  6.633E+004  5.245E+004  4.099E+004  2.944E+004  1.721E+004  2.484E+003 -1.256E+004  3.289E+006  3.452E+006  3.511E+006  3.591E+006  3.610E+006  2.526E+006  2.695E+006  2.748E+006  2.799E+006  2.805E+006  1.506E+006  1.615E+006  1.644E+006  1.663E+006  1.653E+006  6.738E+004  5.336E+004  3.816E+004  1.573E+004 -1.143E+004  3.683E+006  3.830E+006  3.879E+006  3.865E+006  3.845E+006  3.806E+006  3.787E+006  3.748E+006  3.737E+006  3.282E+006  3.523E+006  3.529E+006  3.496E+006  3.456E+006  2.796E+006  2.981E+006  3.070E+006  3.091E+006  3.100E+006  3.082E+006  3.083E+006  3.050E+006  3.047E+006  2.227E+006  2.459E+006  2.488E+006  2.474E+006  2.439E+006  1.623E+006  1.746E+006  1.808E+006  1.827E+006  1.836E+006  1.825E+006  1.824E+006  1.801E+006  1.791E+006  8.568E+005  9.440E+005  9.473E+005  9.276E+005  8.940E+005  8.016E+004  7.449E+004  6.813E+004  5.834E+004  4.751E+004  3.285E+004  1.922E+004  2.828E+003 -1.341E+004  2.949E+006  2.935E+006  2.992E+006  2.979E+006  2.948E+006  2.256E+006  2.222E+006  2.272E+006  2.261E+006  2.234E+006  1.339E+006  1.318E+006  1.355E+006  1.346E+006  1.321E+006  7.388E+004  5.681E+004  3.944E+004  1.697E+004 -1.275E+004  2.692E+006  2.715E+006  2.724E+006  2.702E+006  2.664E+006  2.657E+006  2.646E+006  2.630E+006  2.621E+006  2.378E+006  2.430E+006  2.378E+006  2.367E+006  2.341E+006  2.104E+006  2.137E+006  2.163E+006  2.149E+006  2.116E+006  2.118E+006  2.111E+006  2.096E+006  2.084E+006  1.664E+006  1.713E+006  1.672E+006  1.665E+006  1.641E+006  1.246E+006  1.262E+006  1.277E+006  1.261E+006  1.233E+006  1.230E+006  1.219E+006  1.206E+006  1.193E+006  6.546E+005  6.664E+005  6.369E+005  6.200E+005  5.943E+005  7.288E+004  6.605E+004  6.096E+004  4.947E+004  3.930E+004  2.796E+004  1.647E+004  2.956E+003 -1.053E+004  2.194E+006  2.182E+006  2.175E+006  2.153E+006  2.125E+006  1.699E+006  1.685E+006  1.676E+006  1.653E+006  1.625E+006  1.024E+006  1.013E+006  1.004E+006  9.836E+005  9.560E+005  7.253E+004  5.688E+004  3.925E+004  1.672E+004 -1.175E+004  1.783E+006  1.778E+006  1.779E+006  1.763E+006  1.754E+006  1.741E+006  1.730E+006  1.716E+006  1.700E+006  1.598E+006  1.594E+006  1.570E+006  1.549E+006  1.519E+006  1.400E+006  1.399E+006  1.401E+006  1.387E+006  1.381E+006  1.369E+006  1.362E+006  1.347E+006  1.334E+006  1.125E+006  1.121E+006  1.099E+006  1.079E+006  1.051E+006  8.440E+005  8.409E+005  8.382E+005  8.260E+005  8.186E+005  8.069E+005  7.989E+005  7.841E+005  7.719E+005  4.563E+005  4.469E+005  4.274E+005  4.073E+005  3.796E+005  6.841E+004  6.244E+004  5.685E+004  4.844E+004  3.913E+004  2.856E+004  1.821E+004  4.191E+003 -1.052E+004  1.345E+006  1.332E+006  1.317E+006  1.295E+006  1.268E+006  1.054E+006  1.041E+006  1.027E+006  1.005E+006  9.777E+005  6.449E+005  6.328E+005  6.189E+005  5.976E+005  5.719E+005  6.795E+004  5.339E+004  3.761E+004  1.653E+004 -8.670E+003  9.239E+005  9.196E+005  9.116E+005  9.037E+005  8.935E+005  8.833E+005  8.729E+005  8.589E+005  8.461E+005  8.249E+005  8.136E+005  7.963E+005  7.761E+005  7.505E+005  7.301E+005  7.253E+005  7.178E+005  7.106E+005  7.001E+005  6.913E+005  6.803E+005  6.684E+005  6.549E+005  5.913E+005  5.800E+005  5.629E+005  5.437E+005  5.179E+005  4.545E+005  4.488E+005  4.428E+005  4.344E+005  4.246E+005  4.151E+005  4.059E+005  3.914E+005  3.790E+005  2.601E+005  2.482E+005  2.312E+005  2.124E+005  1.852E+005  6.575E+004  5.939E+004  5.267E+004  4.441E+004  3.615E+004  2.685E+004  1.803E+004  3.793E+003 -1.090E+004  4.966E+005  4.834E+005  4.673E+005  4.473E+005  4.217E+005  3.987E+005  3.858E+005  3.694E+005  3.492E+005  3.236E+005  2.614E+005  2.473E+005  2.316E+005  2.116E+005  1.866E+005  6.250E+004  5.122E+004  3.555E+004  1.519E+004 -8.602E+003  7.492E+004  6.738E+004  6.192E+004  5.317E+004  4.592E+004  3.522E+004  2.508E+004  1.334E+004  1.775E+003  7.496E+004  6.115E+004  4.495E+004  2.456E+004  7.503E+002  7.316E+004  6.614E+004  5.928E+004  5.138E+004  4.358E+004  3.337E+004  2.328E+004  1.132E+004  2.424E+002  7.219E+004  5.992E+004  4.355E+004  2.267E+004 -1.629E+003  6.982E+004  6.348E+004  5.957E+004  4.994E+004  4.343E+004  3.164E+004  2.188E+004  8.582E+003 -3.353E+003  6.836E+004  5.603E+004  3.962E+004  1.928E+004 -7.158E+003  6.421E+004  5.803E+004  5.089E+004  4.297E+004  3.497E+004  2.550E+004  1.572E+004  1.673E+003 -1.146E+004 -3.424E+005 -3.562E+005 -3.723E+005 -3.913E+005 -4.171E+005 -2.501E+005 -2.634E+005 -2.794E+005 -2.985E+005 -3.238E+005 -1.191E+005 -1.336E+005 -1.496E+005 -1.686E+005 -1.939E+005  5.818E+004  4.916E+004  3.323E+004  1.352E+004 -1.027E+004 -7.578E+005 -7.651E+005 -7.714E+005 -7.797E+005 -7.871E+005 -7.972E+005 -8.065E+005 -8.178E+005 -8.280E+005 -6.647E+005 -6.787E+005 -6.944E+005 -7.141E+005 -7.353E+005 -5.717E+005 -5.786E+005 -5.864E+005 -5.935E+005 -6.021E+005 -6.115E+005 -6.220E+005 -6.326E+005 -6.435E+005 -4.400E+005 -4.517E+005 -4.672E+005 -4.877E+005 -5.105E+005 -3.090E+005 -3.146E+005 -3.179E+005 -3.271E+005 -3.331E+005 -3.451E+005 -3.544E+005 -3.673E+005 -3.782E+005 -1.216E+005 -1.343E+005 -1.490E+005 -1.697E+005 -1.935E+005  6.385E+004  5.619E+004  4.775E+004  4.065E+004  3.301E+004  2.357E+004  1.377E+004  1.141E+003 -1.080E+004 -1.166E+006 -1.180E+006 -1.196E+006 -1.214E+006 -1.237E+006 -8.876E+005 -9.008E+005 -9.167E+005 -9.348E+005 -9.585E+005 -4.939E+005 -5.085E+005 -5.234E+005 -5.412E+005 -5.651E+005  5.347E+004  4.545E+004  3.132E+004  1.367E+004 -1.058E+004 -1.572E+006 -1.579E+006 -1.585E+006 -1.594E+006 -1.600E+006 -1.611E+006 -1.619E+006 -1.630E+006 -1.639E+006 -1.386E+006 -1.400E+006 -1.416E+006 -1.434E+006 -1.455E+006 -1.203E+006 -1.209E+006 -1.216E+006 -1.223E+006 -1.232E+006 -1.240E+006 -1.251E+006 -1.260E+006 -1.273E+006 -9.394E+005 -9.509E+005 -9.654E+005 -9.838E+005 -1.005E+006 -6.781E+005 -6.842E+005 -6.871E+005 -6.962E+005 -6.998E+005 -7.129E+005 -7.179E+005 -7.338E+005 -7.396E+005 -3.092E+005 -3.193E+005 -3.335E+005 -3.510E+005 -3.738E+005  5.518E+004  4.952E+004  4.394E+004  3.652E+004  2.995E+004  2.134E+004  1.347E+004  1.290E+003 -1.074E+004 -1.964E+006 -1.977E+006 -1.992E+006 -2.009E+006 -2.029E+006 -1.504E+006 -1.518E+006 -1.532E+006 -1.550E+006 -1.570E+006 -8.586E+005 -8.712E+005 -8.850E+005 -9.015E+005 -9.229E+005  4.978E+004  4.034E+004  2.878E+004  1.080E+004 -1.019E+004 -2.350E+006 -2.358E+006 -2.364E+006 -2.371E+006 -2.377E+006 -2.386E+006 -2.394E+006 -2.404E+006 -2.415E+006 -2.078E+006 -2.091E+006 -2.105E+006 -2.122E+006 -2.143E+006 -1.807E+006 -1.813E+006 -1.820E+006 -1.826E+006 -1.834E+006 -1.841E+006 -1.850E+006 -1.860E+006 -1.873E+006 -1.419E+006 -1.430E+006 -1.443E+006 -1.459E+006 -1.481E+006 -1.033E+006 -1.039E+006 -1.042E+006 -1.050E+006 -1.054E+006 -1.065E+006 -1.070E+006 -1.084E+006 -1.091E+006 -4.889E+005 -4.987E+005 -5.123E+005 -5.273E+005 -5.491E+005  4.892E+004  4.335E+004  3.859E+004  3.243E+004  2.572E+004  1.845E+004  1.081E+004 -1.659E+002 -1.103E+004 -2.723E+006 -2.736E+006 -2.750E+006 -2.765E+006 -2.784E+006 -2.093E+006 -2.105E+006 -2.119E+006 -2.134E+006 -2.153E+006 -1.206E+006 -1.218E+006 -1.230E+006 -1.246E+006 -1.264E+006  4.079E+004  3.460E+004  2.392E+004  7.211E+003 -1.059E+004 -3.090E+006 -3.097E+006 -3.102E+006 -3.110E+006 -3.115E+006 -3.123E+006 -3.129E+006 -3.139E+006 -3.149E+006 -2.734E+006 -2.747E+006 -2.760E+006 -2.775E+006 -2.793E+006 -2.380E+006 -2.386E+006 -2.392E+006 -2.398E+006 -2.406E+006 -2.412E+006 -2.421E+006 -2.428E+006 -2.438E+006 -1.874E+006 -1.884E+006 -1.897E+006 -1.910E+006 -1.929E+006 -1.370E+006 -1.376E+006 -1.378E+006 -1.386E+006 -1.389E+006 -1.400E+006 -1.402E+006 -1.417E+006 -1.422E+006 -6.616E+005 -6.694E+005 -6.817E+005 -6.946E+005 -7.146E+005  4.429E+004  3.979E+004  3.574E+004  2.816E+004  2.167E+004  1.538E+004  8.069E+003 -1.229E+003 -1.083E+004 -3.438E+006 -3.450E+006 -3.462E+006 -3.476E+006 -3.491E+006 -2.647E+006 -2.659E+006 -2.671E+006 -2.684E+006 -2.703E+006 -1.533E+006 -1.544E+006 -1.555E+006 -1.569E+006 -1.585E+006  3.312E+004  2.856E+004  1.804E+004  5.349E+003 -1.280E+004 -3.779E+006 -3.787E+006 -3.791E+006 -3.798E+006 -3.802E+006 -3.810E+006 -3.815E+006 -3.824E+006 -3.831E+006 -3.346E+006 -3.358E+006 -3.370E+006 -3.383E+006 -3.399E+006 -2.915E+006 -2.920E+006 -2.927E+006 -2.931E+006 -2.939E+006 -2.944E+006 -2.952E+006 -2.958E+006 -2.969E+006 -2.299E+006 -2.308E+006 -2.319E+006 -2.332E+006 -2.348E+006 -1.686E+006 -1.692E+006 -1.691E+006 -1.701E+006 -1.702E+006 -1.712E+006 -1.714E+006 -1.727E+006 -1.731E+006 -8.210E+005 -8.292E+005 -8.396E+005 -8.528E+005 -8.685E+005  3.520E+004  3.123E+004  2.694E+004  2.265E+004  1.818E+004  1.240E+004  6.221E+003 -1.137E+003 -9.527E+003 -4.100E+006 -4.111E+006 -4.122E+006 -4.134E+006 -4.147E+006 -3.160E+006 -3.171E+006 -3.182E+006 -3.194E+006 -3.209E+006 -1.836E+006 -1.847E+006 -1.857E+006 -1.867E+006 -1.883E+006  2.334E+004  2.103E+004  1.238E+004  2.329E+003 -1.222E+004 -4.413E+006 -4.420E+006 -4.424E+006 -4.430E+006 -4.434E+006 -4.440E+006 -4.446E+006 -4.453E+006 -4.462E+006 -3.909E+006 -3.920E+006 -3.930E+006 -3.942E+006 -3.956E+006 -3.406E+006 -3.411E+006 -3.417E+006 -3.421E+006 -3.428E+006 -3.432E+006 -3.439E+006 -3.444E+006 -3.453E+006 -2.690E+006 -2.697E+006 -2.707E+006 -2.718E+006 -2.729E+006 -1.978E+006 -1.982E+006 -1.980E+006 -1.988E+006 -1.988E+006 -1.998E+006 -1.999E+006 -2.010E+006 -2.008E+006 -9.711E+005 -9.769E+005 -9.849E+005 -9.939E+005 -1.006E+006  2.920E+004  2.480E+004  2.004E+004  1.641E+004  1.124E+004  7.067E+003  4.046E+003 -2.710E+003 -9.257E+003 -4.700E+006 -4.709E+006 -4.719E+006 -4.727E+006 -4.739E+006 -3.625E+006 -3.635E+006 -3.644E+006 -3.654E+006 -3.667E+006 -2.112E+006 -2.121E+006 -2.129E+006 -2.136E+006 -2.151E+006  1.210E+004  1.310E+004  1.049E+004  1.609E+003 -9.326E+003 -4.978E+006 -4.985E+006 -4.988E+006 -4.993E+006 -4.996E+006 -5.001E+006 -5.003E+006 -5.012E+006 -5.014E+006 -4.410E+006 -4.421E+006 -4.429E+006 -4.438E+006 -4.446E+006 -3.845E+006 -3.849E+006 -3.855E+006 -3.858E+006 -3.866E+006 -3.866E+006 -3.873E+006 -3.876E+006 -3.886E+006 -3.038E+006 -3.045E+006 -3.051E+006 -3.060E+006 -3.069E+006 -2.235E+006 -2.240E+006 -2.237E+006 -2.245E+006 -2.240E+006 -2.254E+006 -2.249E+006 -2.261E+006 -2.258E+006 -1.105E+006 -1.109E+006 -1.115E+006 -1.123E+006 -1.130E+006  1.345E+004  1.487E+004  1.317E+004  9.580E+003  5.916E+003  3.591E+003  1.529E+003 -3.061E+003 -8.458E+003 -5.221E+006 -5.231E+006 -5.239E+006 -5.248E+006 -5.267E+006 -4.028E+006 -4.038E+006 -4.045E+006 -4.053E+006 -4.070E+006 -2.348E+006 -2.357E+006 -2.366E+006 -2.369E+006 -2.386E+006  9.279E+003  7.259E+003  3.676E+003 -4.427E+003 -1.168E+004 -5.450E+006 -5.457E+006 -5.460E+006 -5.466E+006 -5.468E+006 -5.471E+006 -5.474E+006 -5.484E+006 -5.496E+006 -4.830E+006 -4.840E+006 -4.848E+006 -4.855E+006 -4.869E+006 -4.212E+006 -4.215E+006 -4.222E+006 -4.224E+006 -4.230E+006 -4.232E+006 -4.237E+006 -4.239E+006 -4.247E+006 -3.329E+006 -3.334E+006 -3.340E+006 -3.349E+006 -3.353E+006 -2.446E+006 -2.452E+006 -2.448E+006 -2.457E+006 -2.454E+006 -2.465E+006 -2.464E+006 -2.473E+006 -2.464E+006 -1.218E+006 -1.216E+006 -1.224E+006 -1.231E+006 -1.234E+006  6.822E+003  6.600E+003  6.627E+003  5.243E+003  2.205E+003 -2.582E+003 -5.505E+003 -8.775E+003 -1.316E+004 -5.642E+006 -5.650E+006 -5.656E+006 -5.661E+006 -5.671E+006 -4.353E+006 -4.362E+006 -4.368E+006 -4.375E+006 -4.386E+006 -2.544E+006 -2.548E+006 -2.554E+006 -2.559E+006 -2.569E+006  1.662E+004  2.624E+003  6.269E+002 -7.328E+003 -9.382E+003 -5.816E+006 -5.823E+006 -5.825E+006 -5.831E+006 -5.832E+006 -5.835E+006 -5.832E+006 -5.845E+006 -5.848E+006 -5.155E+006 -5.165E+006 -5.171E+006 -5.174E+006 -5.185E+006 -4.498E+006 -4.500E+006 -4.506E+006 -4.507E+006 -4.512E+006 -4.513E+006 -4.518E+006 -4.518E+006 -4.523E+006 -3.554E+006 -3.559E+006 -3.565E+006 -3.570E+006 -3.571E+006 -2.615E+006 -2.618E+006 -2.612E+006 -2.620E+006 -2.615E+006 -2.629E+006 -2.628E+006 -2.635E+006 -2.624E+006 -1.307E+006 -1.301E+006 -1.303E+006 -1.312E+006 -1.314E+006  4.673E+003  2.005E+003  1.109E+003 -1.390E+003 -3.232E+003 -4.196E+003 -4.191E+003 -9.233E+003 -1.527E+004 -5.954E+006 -5.963E+006 -5.970E+006 -5.973E+006 -5.980E+006 -4.596E+006 -4.604E+006 -4.610E+006 -4.617E+006 -4.626E+006 -2.685E+006 -2.690E+006 -2.695E+006 -2.699E+006 -2.710E+006  1.429E+004  4.184E+003 -1.289E+003 -5.267E+003 -7.221E+003 -6.077E+006 -6.085E+006 -6.087E+006 -6.092E+006 -6.092E+006 -6.098E+006 -6.098E+006 -6.113E+006 -6.115E+006 -5.386E+006 -5.396E+006 -5.403E+006 -5.408E+006 -5.419E+006 -4.697E+006 -4.701E+006 -4.708E+006 -4.709E+006 -4.716E+006 -4.715E+006 -4.720E+006 -4.722E+006 -4.731E+006 -3.714E+006 -3.719E+006 -3.723E+006 -3.731E+006 -3.731E+006 -2.731E+006 -2.735E+006 -2.729E+006 -2.736E+006 -2.732E+006 -2.746E+006 -2.744E+006 -2.753E+006 -2.740E+006 -1.361E+006 -1.358E+006 -1.362E+006 -1.369E+006 -1.373E+006  3.563E+003  2.051E+003  1.053E+003 -1.685E+003 -2.904E+003 -5.071E+003 -5.421E+003 -1.041E+004 -1.489E+004 -6.157E+006 -6.167E+006 -6.176E+006 -6.181E+006 -6.190E+006 -4.752E+006 -4.761E+006 -4.767E+006 -4.776E+006 -4.783E+006 -2.774E+006 -2.782E+006 -2.790E+006 -2.791E+006 -2.801E+006  9.975E+003  1.723E+003 -1.594E+003 -7.970E+003 -1.006E+004 -6.218E+006 -6.228E+006 -6.230E+006 -6.236E+006 -6.237E+006 -6.241E+006 -6.242E+006 -6.251E+006 -6.258E+006 -5.511E+006 -5.524E+006 -5.531E+006 -5.536E+006 -5.547E+006 -4.808E+006 -4.811E+006 -4.820E+006 -4.821E+006 -4.827E+006 -4.827E+006 -4.833E+006 -4.832E+006 -4.841E+006 -3.799E+006 -3.805E+006 -3.810E+006 -3.818E+006 -3.818E+006 -2.790E+006 -2.797E+006 -2.792E+006 -2.801E+006 -2.794E+006 -2.811E+006 -2.811E+006 -2.820E+006 -2.800E+006 -1.391E+006 -1.390E+006 -1.393E+006 -1.405E+006 -1.398E+006  4.888E+003  1.282E+003  1.988E+002 -2.517E+003 -3.813E+003 -7.140E+003 -8.667E+003 -1.020E+004 -1.157E+004 -6.236E+006 -6.247E+006 -6.254E+006 -6.257E+006 -6.265E+006 -4.811E+006 -4.822E+006 -4.830E+006 -4.835E+006 -4.843E+006 -2.812E+006 -2.817E+006 -2.824E+006 -2.827E+006 -2.836E+006  1.690E+004  2.638E+003 -5.877E+003 -8.515E+003 -1.207E+004 -6.235E+006 -6.244E+006 -6.245E+006 -6.252E+006 -6.252E+006 -6.258E+006 -6.255E+006 -6.266E+006 -6.269E+006 -5.526E+006 -5.538E+006 -5.545E+006 -5.549E+006 -5.558E+006 -4.822E+006 -4.825E+006 -4.833E+006 -4.833E+006 -4.839E+006 -4.839E+006 -4.846E+006 -4.845E+006 -4.854E+006 -3.807E+006 -3.815E+006 -3.819E+006 -3.828E+006 -3.824E+006 -2.797E+006 -2.804E+006 -2.797E+006 -2.807E+006 -2.799E+006 -2.817E+006 -2.814E+006 -2.822E+006 -2.804E+006 -1.396E+006 -1.395E+006 -1.393E+006 -1.404E+006 -1.403E+006  8.640E+002 -2.648E+003 -5.688E+003 -5.469E+003 -3.645E+003 -7.863E+003 -1.043E+004 -1.013E+004 -1.139E+004 -6.182E+006 -6.193E+006 -6.199E+006 -6.205E+006 -6.213E+006 -4.771E+006 -4.780E+006 -4.787E+006 -4.792E+006 -4.802E+006 -2.788E+006 -2.794E+006 -2.800E+006 -2.802E+006 -2.812E+006  1.054E+004 -1.432E+003 -7.494E+003 -1.087E+004 -1.041E+004 -6.106E+006 -6.115E+006 -6.117E+006 -6.123E+006 -6.124E+006 -6.127E+006 -6.126E+006 -6.135E+006 -6.140E+006 -5.412E+006 -5.424E+006 -5.431E+006 -5.435E+006 -5.444E+006 -4.724E+006 -4.727E+006 -4.735E+006 -4.735E+006 -4.740E+006 -4.740E+006 -4.748E+006 -4.746E+006 -4.753E+006 -3.729E+006 -3.736E+006 -3.740E+006 -3.746E+006 -3.744E+006 -2.741E+006 -2.747E+006 -2.739E+006 -2.749E+006 -2.743E+006 -2.758E+006 -2.753E+006 -2.764E+006 -2.743E+006 -1.375E+006 -1.367E+006 -1.367E+006 -1.377E+006 -1.371E+006 -9.390E+003 -8.082E+003 -8.219E+003 -7.016E+003 -5.384E+003 -1.004E+004 -1.211E+004 -1.450E+004 -1.476E+004 -5.978E+006 -5.987E+006 -5.993E+006 -5.997E+006 -6.003E+006 -4.611E+006 -4.621E+006 -4.626E+006 -4.634E+006 -4.638E+006 -2.700E+006 -2.702E+006 -2.710E+006 -2.705E+006 -2.716E+006  3.947E+003 -8.467E+003 -9.158E+003 -1.281E+004 -9.638E+003 -5.822E+006 -5.831E+006 -5.832E+006 -5.838E+006 -5.838E+006 -5.842E+006 -5.841E+006 -5.850E+006 -5.852E+006 -5.162E+006 -5.172E+006 -5.179E+006 -5.180E+006 -5.187E+006 -4.504E+006 -4.507E+006 -4.515E+006 -4.515E+006 -4.522E+006 -4.518E+006 -4.525E+006 -4.522E+006 -4.529E+006 -3.556E+006 -3.562E+006 -3.564E+006 -3.571E+006 -3.562E+006 -2.607E+006 -2.616E+006 -2.610E+006 -2.619E+006 -2.608E+006 -2.626E+006 -2.621E+006 -2.628E+006 -2.601E+006 -1.313E+006 -1.305E+006 -1.305E+006 -1.309E+006 -1.300E+006 -1.585E+004 -1.625E+004 -1.490E+004 -1.388E+004 -1.400E+004 -1.337E+004 -1.076E+004 -1.198E+004 -1.497E+004 -5.608E+006 -5.619E+006 -5.623E+006 -5.627E+006 -5.629E+006 -4.325E+006 -4.335E+006 -4.342E+006 -4.347E+006 -4.350E+006 -2.530E+006 -2.535E+006 -2.539E+006 -2.538E+006 -2.546E+006  5.739E+003 -8.306E+003 -9.474E+003 -1.362E+004 -8.721E+003 -5.368E+006 -5.379E+006 -5.380E+006 -5.387E+006 -5.387E+006 -5.391E+006 -5.385E+006 -5.396E+006 -5.394E+006 -4.759E+006 -4.771E+006 -4.777E+006 -4.780E+006 -4.783E+006 -4.153E+006 -4.156E+006 -4.165E+006 -4.164E+006 -4.172E+006 -4.168E+006 -4.177E+006 -4.172E+006 -4.180E+006 -3.275E+006 -3.280E+006 -3.285E+006 -3.291E+006 -3.285E+006 -2.402E+006 -2.409E+006 -2.399E+006 -2.410E+006 -2.400E+006 -2.419E+006 -2.412E+006 -2.424E+006 -2.398E+006 -1.204E+006 -1.197E+006 -1.197E+006 -1.201E+006 -1.199E+006 -1.257E+004 -1.249E+004 -1.218E+004 -1.239E+004 -1.158E+004 -1.132E+004 -7.135E+003 -1.240E+004 -1.794E+004 -5.063E+006 -5.077E+006 -5.082E+006 -5.085E+006 -5.090E+006 -3.904E+006 -3.914E+006 -3.920E+006 -3.924E+006 -3.930E+006 -2.279E+006 -2.289E+006 -2.294E+006 -2.288E+006 -2.299E+006  8.392E+003 -4.901E+003 -8.162E+003 -1.371E+004 -5.282E+003 -4.730E+006 -4.743E+006 -4.745E+006 -4.750E+006 -4.751E+006 -4.752E+006 -4.753E+006 -4.756E+006 -4.761E+006 -4.192E+006 -4.207E+006 -4.212E+006 -4.216E+006 -4.216E+006 -3.659E+006 -3.662E+006 -3.672E+006 -3.672E+006 -3.677E+006 -3.676E+006 -3.682E+006 -3.674E+006 -3.678E+006 -2.884E+006 -2.888E+006 -2.890E+006 -2.897E+006 -2.887E+006 -2.112E+006 -2.117E+006 -2.107E+006 -2.118E+006 -2.110E+006 -2.127E+006 -2.118E+006 -2.130E+006 -2.106E+006 -1.058E+006 -1.050E+006 -1.053E+006 -1.056E+006 -1.049E+006 -2.087E+003 -9.557E+003 -1.078E+004 -9.807E+003 -1.222E+004 -1.123E+004 -1.252E+004 -8.514E+003 -7.193E+003 -4.329E+006 -4.341E+006 -4.347E+006 -4.345E+006 -4.356E+006 -3.333E+006 -3.344E+006 -3.351E+006 -3.354E+006 -3.360E+006 -1.948E+006 -1.952E+006 -1.958E+006 -1.955E+006 -1.962E+006  1.042E+004 -4.009E+003 -7.677E+003 -7.509E+003 -7.826E+003 -3.894E+006 -3.905E+006 -3.905E+006 -3.914E+006 -3.911E+006 -3.920E+006 -3.917E+006 -3.927E+006 -3.920E+006 -3.450E+006 -3.462E+006 -3.469E+006 -3.473E+006 -3.472E+006 -3.010E+006 -3.013E+006 -3.024E+006 -3.020E+006 -3.029E+006 -3.028E+006 -3.039E+006 -3.031E+006 -3.036E+006 -2.367E+006 -2.369E+006 -2.374E+006 -2.379E+006 -2.373E+006 -1.730E+006 -1.734E+006 -1.718E+006 -1.736E+006 -1.722E+006 -1.742E+006 -1.730E+006 -1.747E+006 -1.720E+006 -8.654E+005 -8.541E+005 -8.550E+005 -8.630E+005 -8.540E+005 -7.406E+003 -7.860E+003 -6.226E+003 -1.084E+004 -1.161E+004 -1.242E+004 -9.771E+003 -3.598E+003 -1.764E+003 -3.382E+006 -3.394E+006 -3.402E+006 -3.401E+006 -3.411E+006 -2.604E+006 -2.614E+006 -2.620E+006 -2.626E+006 -2.634E+006 -1.515E+006 -1.525E+006 -1.527E+006 -1.524E+006 -1.531E+006  1.396E+004 -4.404E+002 -4.442E+003 -4.805E+003 -4.744E+003 -2.843E+006 -2.855E+006 -2.857E+006 -2.863E+006 -2.863E+006 -2.866E+006 -2.861E+006 -2.874E+006 -2.882E+006 -2.516E+006 -2.528E+006 -2.534E+006 -2.535E+006 -2.543E+006 -2.196E+006 -2.193E+006 -2.203E+006 -2.202E+006 -2.209E+006 -2.203E+006 -2.210E+006 -2.202E+006 -2.214E+006 -1.720E+006 -1.717E+006 -1.719E+006 -1.724E+006 -1.718E+006 -1.245E+006 -1.250E+006 -1.237E+006 -1.248E+006 -1.237E+006 -1.256E+006 -1.239E+006 -1.262E+006 -1.238E+006 -6.224E+005 -6.112E+005 -6.119E+005 -6.099E+005 -6.101E+005 -2.321E+003 -6.082E+003 -8.705E+003 -5.806E+003 -3.661E+003 -5.956E+003 -2.110E+003 -8.129E+003 -5.562E+003 -2.225E+006 -2.227E+006 -2.231E+006 -2.234E+006 -2.247E+006 -1.709E+006 -1.717E+006 -1.721E+006 -1.730E+006 -1.737E+006 -9.986E+005 -1.006E+006 -1.009E+006 -1.001E+006 -1.010E+006  1.492E+004 -3.307E+003 -9.515E+003 -5.985E+003 -5.330E+003 -1.569E+006 -1.560E+006 -1.560E+006 -1.564E+006 -1.560E+006 -1.571E+006 -1.576E+006 -1.585E+006 -1.598E+006 -1.377E+006 -1.366E+006 -1.367E+006 -1.375E+006 -1.385E+006 -1.190E+006 -1.183E+006 -1.180E+006 -1.173E+006 -1.179E+006 -1.176E+006 -1.186E+006 -1.185E+006 -1.190E+006 -9.233E+005 -8.976E+005 -8.929E+005 -9.029E+005 -8.922E+005 -6.591E+005 -6.503E+005 -6.234E+005 -6.368E+005 -6.204E+005 -6.392E+005 -6.298E+005 -6.422E+005 -6.052E+005 -3.366E+005 -3.081E+005 -2.999E+005 -3.106E+005 -2.968E+005 -1.164E+004 -1.256E+004 -1.005E+004 -5.116E+003 -3.033E+003 -6.919E+003 -8.751E+003 -1.922E+003 -4.403E+003 -8.245E+005 -8.336E+005 -8.450E+005 -8.637E+005 -8.670E+005 -6.407E+005 -6.384E+005 -6.431E+005 -6.466E+005 -6.518E+005 -3.634E+005 -3.670E+005 -3.658E+005 -3.630E+005 -3.651E+005  2.238E+004  8.312E+003  6.692E+003 -2.145E+003  2.436E+003 -1.411E+005 -1.561E+005 -1.772E+005 -1.837E+005 -1.808E+005 -1.752E+005 -1.513E+005 -1.532E+005 -1.192E+005 -5.722E+004 -5.762E+004 -5.278E+004 -2.822E+004 -1.326E+004  2.258E+004  5.829E+004  5.073E+004  6.221E+004  6.278E+004  6.468E+004  6.915E+004  6.458E+004  7.473E+004  4.135E+004  9.179E+004  1.018E+005  1.011E+005  1.199E+005  5.834E+004  8.625E+004  1.127E+005  1.048E+005  1.190E+005  9.774E+004  1.076E+005  9.626E+004  1.292E+005  3.184E+004  6.170E+004  6.775E+004  7.040E+004  8.889E+004 -1.254E+004 -1.061E+004 -4.951E+003 -4.749E+002 -1.695E+003  1.498E+003  8.532E+003  9.933E+003  1.496E+004
        </DataArray>
        <DataArray type="Float32" Name="stress_xy" NumberOfComponents="1" format="ascii">
 -3.753E+004  7.827E+003 -1.865E+004 -7.087E+003 -2.767E+003 -9.206E+003 -1.001E+003 -4.554E+003  1.667E+002 -2.981E+004 -8.450E+003  9.681E+003  7.939E+003  2.211E+001 -4.401E+004  1.399E+004 -1.420E+004 -8.251E+003  6.563E+003 -5.258E+003  4.290E+003 -2.905E+003 -1.007E+002 -3.886E+004 -9.475E+003  1.013E+004  5.021E+003  2.523E+002 -4.295E+004  2.442E+004 -8.315E+003 -7.303E+003  1.445E+004 -2.451E+003  7.730E+003 -1.803E+003 -1.671E+002 -5.056E+004 -1.174E+004  1.218E+004  5.865E+003  1.674E+002 -4.144E+004  3.005E+004 -5.590E+003 -7.292E+003  1.664E+004 -2.473E+003  8.041E+003 -1.638E+003  1.638E+002 -3.503E+004 -1.091E+004 -1.307E+004 -8.320E+003 -1.141E+003 -4.196E+004 -4.363E+004 -5.903E+004 -3.933E+004  5.431E+001 -5.948E+004 -8.416E+004 -9.992E+004 -6.512E+004  8.687E+002 -6.566E+004 -1.033E+005 -1.169E+005 -7.450E+004  1.125E+003  4.306E+004  2.191E+004  7.036E+003  8.453E+003 -3.865E+002  9.331E+003 -8.205E+002  4.921E+003  1.272E+003  3.807E+004 -6.502E+003 -2.031E+004 -1.654E+004  1.080E+003  3.823E+004  2.703E+003 -1.719E+004 -2.099E+004 -3.583E+004 -2.438E+004 -2.863E+004 -1.016E+004  8.391E+001  2.800E+004 -4.382E+004 -5.569E+004 -4.141E+004 -4.976E+002  2.498E+004 -3.551E+004 -6.806E+004 -6.481E+004 -7.448E+004 -5.706E+004 -5.377E+004 -2.398E+004 -1.244E+002  2.279E+004 -8.615E+004 -8.865E+004 -6.083E+004  1.691E+002  1.860E+004 -5.536E+004 -9.827E+004 -9.286E+004 -9.698E+004 -7.529E+004 -6.569E+004 -3.025E+004  1.042E+003 -5.755E+003 -2.351E+003 -1.287E+003 -2.086E+003 -7.861E+002  7.772E+003 -1.219E+004 -2.140E+004 -1.737E+004  1.542E+002  1.603E+004 -2.578E+004 -3.867E+004 -2.918E+004  8.652E+002  1.842E+004 -3.611E+004 -4.918E+004 -3.579E+004  8.715E+001  1.157E+004  6.453E+003  2.065E+003  5.320E+002 -2.583E+003 -1.409E+003 -1.739E+003  8.847E+002  3.627E+003  4.143E+003 -6.464E+002 -4.611E+003 -3.332E+003  1.757E+003 -5.195E+003 -1.298E+003 -3.570E+003 -6.387E+003 -7.577E+003 -7.471E+003 -5.921E+003 -2.993E+003  5.255E+002 -1.007E+004 -7.615E+003 -1.163E+004 -9.465E+003  6.467E+002 -1.550E+004 -9.360E+003 -1.229E+004 -1.522E+004 -1.557E+004 -1.583E+004 -1.284E+004 -6.624E+003  5.696E+002 -1.757E+004 -1.353E+004 -1.800E+004 -1.450E+004  6.536E+002 -1.759E+004 -1.197E+004 -1.489E+004 -1.822E+004 -2.017E+004 -1.936E+004 -1.559E+004 -8.027E+003  6.577E+002 -1.950E+003 -6.466E+001 -1.031E+003 -7.077E+002 -1.352E+002 -2.314E+003 -2.226E+003 -3.505E+003 -3.146E+003  4.332E+002 -3.577E+003 -4.273E+003 -7.337E+003 -5.223E+003 -2.951E+002 -4.279E+003 -6.625E+003 -1.004E+004 -7.173E+003  4.302E+000  2.144E+003  1.475E+003 -2.859E+002  2.020E+002  4.332E+002  2.704E+002 -2.111E+002  1.252E+003  2.539E+003  1.663E+003 -4.764E+002 -7.817E+002 -4.524E+002  4.760E+002  1.856E+003 -9.799E+001 -7.573E+002 -7.189E+002 -1.664E+003 -7.376E+002 -8.866E+002  1.936E+001  1.972E+002  1.804E+003 -1.922E+003 -2.213E+003 -1.452E+003  4.744E+002  2.067E+003 -1.600E+003 -2.881E+003 -2.394E+003 -2.793E+003 -1.864E+003 -2.096E+003 -3.685E+002  9.542E+002  2.207E+003 -3.250E+003 -3.404E+003 -2.472E+003  1.212E+003  2.426E+003 -1.881E+003 -3.108E+003 -2.768E+003 -3.378E+003 -1.933E+003 -2.884E+003 -7.903E+002  2.732E+002 -3.374E+002 -1.279E+002  6.191E+001  5.189E+001 -5.766E+002  7.064E+002 -3.180E+002 -6.162E+002 -5.535E+002  6.857E+001  9.902E+002 -7.566E+002 -1.069E+003 -6.744E+002 -7.035E+002  9.694E+002 -1.404E+003 -2.191E+003 -1.672E+003  1.680E+002  3.456E+002  4.473E+001  1.587E+002  2.164E+001 -1.479E+002 -4.810E+001 -6.894E+001  3.642E+002  8.063E+002  1.296E+002  8.747E+001  1.420E+002 -2.627E+001  1.054E+003 -4.080E+002  1.773E+001  1.988E+001  5.103E+001  2.847E+002  2.501E+002  3.184E+002  7.555E+001 -1.985E+002 -5.029E+002  4.675E+001  1.630E+002  2.256E+002  4.778E+002 -8.611E+002 -2.146E+002 -8.797E+001 -1.628E+002  7.162E+001  1.308E+002  2.491E+002  3.817E+002  3.562E+002 -1.052E+003 -2.497E+002 -2.670E+002 -6.293E+001  3.116E+002 -2.163E+003 -9.002E+002 -1.087E+003 -5.628E+002 -8.629E+002  4.829E+002 -5.955E+002  3.399E+002  6.088E+002  6.639E+001  2.066E+001 -4.737E+001  3.042E+001 -5.806E+002 -3.379E+002  1.776E+002  8.982E+001  1.042E+002  3.358E+000 -2.042E+002  7.138E+001  3.151E+002 -1.954E+000 -2.695E+002 -2.515E+003 -4.273E+002  1.380E+002 -2.364E+002  6.957E+001 -3.274E+002 -5.984E+001  8.257E+001  2.549E+001  1.196E+001 -1.254E+002 -1.952E+002  4.080E+002  8.063E+002  1.226E+002  5.561E+001 -6.812E+001 -2.118E+002  1.488E+002  6.393E+002  3.106E+002  2.801E+001 -2.210E+001 -8.834E+001 -2.376E+002 -4.532E+002  1.944E+002  4.426E+002  5.357E+002  2.200E+002 -2.800E+002 -1.083E+002  2.083E+002  1.946E+002 -2.258E+001  4.159E+002  3.696E+001 -4.705E+002 -1.427E+002  6.144E+001  5.134E+002  5.509E+002 -2.218E+002 -3.214E+002 -4.863E+002  3.287E+001  6.094E+002 -1.940E+003  7.426E+002 -9.822E+002 -5.482E+002 -3.678E+002 -8.084E+002  8.120E+001  7.173E+002  4.912E+002  1.912E+002 -4.304E+001  1.128E+002 -1.543E+002  5.094E+002 -4.490E+002  2.622E+002  1.145E+002  9.064E+001  2.618E+002  5.506E+002  6.495E+001  2.825E+002 -3.303E+002  1.418E+002 -3.308E+003 -1.174E+003  8.500E+002  4.334E+002 -1.523E+002 -5.447E+002 -2.160E+002  2.851E+002  1.654E+001 -9.647E+001 -3.939E+001 -2.166E+001  5.138E+001  2.099E+002  2.203E+002  4.396E+002  7.271E+001 -4.177E+001 -3.132E+002  8.816E+002  7.771E+002  5.964E+002  4.079E+002  2.633E+002 -1.088E+002 -3.535E+002 -1.933E+002  2.784E+002  4.848E+002  9.059E+002  1.162E+002 -2.903E+001  4.083E-002 -3.053E+002  9.088E+001  1.153E+003  5.624E+002 -8.663E+001  1.065E+002  2.492E+002  4.876E+002  4.725E+002 -4.857E+002  4.778E+002 -3.459E+001  1.398E+002 -1.120E+002 -3.022E+003  7.644E+002 -6.766E+002  4.903E+002 -1.899E+002 -4.248E+002  4.420E+002 -4.572E+001 -2.183E+002  2.670E+002 -2.535E+001  2.246E+002 -1.673E+002  6.554E+002 -6.190E+002  4.717E+002  4.960E+002  1.122E+002  5.827E+002  6.548E+002  8.420E+002  1.033E+003 -1.844E+002  9.165E+001 -4.718E+003 -1.711E+003 -3.812E+001 -1.136E+002  7.933E+002 -7.025E+002 -2.168E+002  3.146E+002 -3.033E+001 -6.392E+001 -3.201E+001  4.174E+002 -2.904E+002 -8.384E+002  2.429E+002  8.450E+002  4.611E+002  4.443E+002 -5.742E+002  1.205E+003  1.329E+003  1.378E+003  1.125E+003  9.714E+002  7.377E+002  4.907E+002  3.457E+001 -1.744E+002  7.171E+002  1.408E+003  8.757E+002  8.376E+002  1.439E+002 -1.735E+002  1.497E+002  1.444E+003  9.572E+002  6.441E+002  1.081E+003  9.416E+002  7.168E+002  4.277E+002 -1.182E+003  3.791E+001 -6.679E+000  9.234E+002  3.735E+002 -4.631E+003  7.119E+002 -1.792E+003  1.292E+003 -1.233E+003  1.814E+003  9.270E+001  5.115E+002  1.381E+002  2.977E+002  6.217E+001  1.792E+002 -6.410E+001 -2.482E+002 -6.403E+002  6.491E+002  9.089E+002  9.228E+000  5.391E+002  1.011E+003  1.800E+003  1.651E+003  1.459E+002 -3.785E+002 -4.856E+003 -1.216E+003 -6.273E+001 -4.876E+002  6.571E+002 -8.290E+002 -3.816E+002  2.139E+002 -6.999E+001 -1.263E+002  9.631E+001  2.952E+002 -1.364E+002 -9.895E+002  3.563E+002  9.368E+002  4.286E+002  5.972E+002 -7.637E+002  1.565E+003  1.629E+003  1.669E+003  1.212E+003  8.898E+002  8.471E+002  9.140E+002  4.494E+002 -5.356E+002  7.191E+002  1.194E+003  7.718E+002  1.060E+003 -4.242E+002 -4.129E+002 -3.599E+002  7.433E+002  6.799E+002  6.458E+002  1.107E+003  1.216E+003  1.259E+003  5.263E+002 -2.355E+003 -1.436E+002  3.442E+002  9.871E+002 -3.020E+002 -6.106E+003  4.547E+002 -1.317E+003  1.026E+003  4.426E+001  1.617E+003  1.397E+003  1.048E+003 -5.746E+002  4.227E+002  9.898E+001  2.525E+002 -1.918E+002 -3.476E+001 -8.366E+002  7.399E+002  1.093E+003  2.811E+001  4.125E+002  1.481E+003  2.311E+003  1.768E+003  3.507E+002  1.559E+002 -5.689E+003 -1.022E+003  1.815E+002  4.318E+001  8.941E+002 -1.125E+003 -4.605E+002  3.135E+002 -1.205E+002 -2.072E+002 -2.138E+001  3.649E+002  2.519E+002 -4.062E+002  3.764E+002  1.089E+003  3.090E+002  6.477E+002 -2.493E+002  1.911E+003  1.936E+003  1.880E+003  1.256E+003  8.870E+002  8.584E+002  8.979E+002  5.036E+002  3.336E+002  7.620E+002  1.279E+003  9.500E+002  9.705E+002  1.135E+003 -8.937E+002 -6.532E+002  7.278E+002  7.610E+002  9.129E+002  1.385E+003  1.181E+003  1.340E+003  1.291E+003 -2.593E+003 -6.312E+002  3.270E+002  1.152E+003  2.919E+002 -7.033E+003 -2.293E+002 -2.447E+003  1.229E+003 -2.807E+002  2.782E+003  1.176E+003  3.007E+002 -3.554E+002  5.356E+002  9.092E+001  4.243E+002 -2.631E+002 -1.953E+001 -1.009E+003  8.202E+002  1.070E+003  2.080E+002  1.921E+002  1.661E+003  2.299E+003  1.675E+003  3.973E+002 -1.210E+002 -7.401E+003 -1.331E+003  2.045E+002  7.339E+002  1.189E+003 -1.099E+003 -4.552E+002  3.349E+002 -1.344E+002 -2.645E+002 -1.659E+002  3.095E+002  7.439E+002  1.855E+003  4.296E+002  9.584E+002  1.806E+002  6.346E+002  1.067E+003  2.119E+003  1.930E+003  1.645E+003  1.104E+003  6.820E+002  8.513E+002  1.079E+003  9.578E+002  4.274E+002  1.113E+003  1.132E+003  7.412E+002  1.454E+003  1.451E+003 -5.579E+002 -8.145E+002  8.060E+002  7.524E+002  7.016E+002  1.670E+003  2.016E+003  2.166E+003  1.661E+003 -3.817E+003 -1.516E+003  3.679E+002  1.836E+003  8.089E+002 -1.121E+004 -2.493E+002 -3.371E+003 -2.733E+001  3.262E+001  1.966E+003  1.971E+003  1.491E+003  2.526E+002  5.354E+002  9.028E+001  3.603E+002  3.724E+001 -3.603E+002 -1.131E+003  1.111E+003  1.608E+003  7.043E+002  6.658E+002  1.549E+003  2.381E+003  2.497E+003  1.071E+003 -6.440E+002 -9.109E+003 -1.349E+003  1.536E+003  4.360E+002  9.139E+002 -1.247E+003 -5.177E+002  4.604E+002  1.543E+001  6.064E+001  1.686E+001  5.103E+002  8.386E+002  2.052E+003  4.120E+002  1.465E+003  9.296E+002  1.563E+003  2.855E+002  2.005E+003  2.241E+003  2.447E+003  1.867E+003  1.699E+003  1.935E+003  2.507E+003  5.803E+002 -8.122E+002  1.344E+003  2.803E+003  2.439E+003  3.086E+003  2.486E+002  3.941E+001  7.725E+002  2.976E+003  2.917E+003  3.020E+003  3.441E+003  3.347E+003  3.142E+003  2.157E+003 -2.123E+003  1.890E+003  1.843E+003  3.036E+003  1.205E+003 -7.664E+003  1.851E+003 -9.988E+002  2.550E+003  5.677E+002  3.808E+003  1.843E+003  3.110E+003  6.311E+002  3.493E+002  1.272E+002  3.310E+002 -5.186E+001 -2.007E+003 -1.158E+003  1.418E+003  2.408E+003  4.639E+002  1.840E+003  1.093E+003  3.396E+003  3.464E+003  2.101E+003 -5.828E+002 -9.013E+003 -2.128E+003  7.459E+002  1.539E+003  2.602E+003 -1.338E+003 -5.089E+002  5.014E+002  6.998E+001  7.261E+002 -1.921E+002 -6.993E+002  1.487E+003  5.638E+002  5.473E+002  1.288E+003  1.488E+003 -1.558E+002  8.798E+002  2.132E+003  2.366E+003  2.299E+003  2.413E+003  2.088E+003  2.128E+003  1.094E+003  2.239E+003 -1.103E+003  1.680E+003  3.261E+003  3.353E+003  2.786E+003  3.902E+002 -2.724E+002  7.760E+002  4.303E+003  4.329E+003  4.765E+003  5.046E+003  4.552E+003  4.400E+003  1.156E+003 -1.520E+003  6.045E+002  2.156E+003  4.948E+003  2.782E+003 -1.041E+004  1.531E+003 -4.103E+003  4.239E+003 -1.256E+003  6.422E+003  5.729E+003  4.192E+003  3.630E+003  3.183E+002  3.416E+002 -4.337E+001  1.890E+002 -3.293E+003 -1.205E+003  2.533E+003  2.869E+003  2.544E+003  2.221E+002  2.777E+003  4.410E+003  4.606E+003  4.404E+003  6.021E+001 -1.252E+004 -3.281E+002  2.284E+003  3.989E+003 -3.139E+002 -1.055E+003 -2.521E+002 -1.205E+002  2.917E+002  7.541E+002 -5.615E+002 -2.575E+003  4.349E+003  4.778E+003  3.091E+002  1.417E+003  1.151E+003  1.155E+003  9.227E+002  2.566E+003  2.414E+003  2.603E+003  2.124E+003  2.275E+003  2.786E+003  3.589E+003  2.896E+003 -1.470E+003  2.395E+003  2.968E+003  3.081E+003  5.521E+003 -2.208E+003  4.181E+003  2.386E+003  3.323E+003  4.190E+003  5.022E+003  7.131E+003  7.212E+003  5.574E+003  7.739E+002 -6.591E+003  4.676E+002  3.026E+003  6.434E+003 -2.378E+002 -1.615E+004  5.145E+002 -1.662E+003  9.208E+002  4.570E+002  6.230E+003  5.780E+003  6.762E+003 -2.553E+003 -9.591E+001  1.223E+002  6.764E+002 -1.104E+003 -1.213E+003  7.848E+002  1.473E+003  2.931E+003  1.231E+003  1.201E+002  2.994E+003  2.257E+003  3.711E+003  1.781E+003 -1.772E+002 -1.524E+004 -2.265E+003  3.176E+003  8.837E+002 -2.876E+003 -8.569E+002  2.885E+000  6.070E+002 -2.903E+002 -2.139E+002 -1.963E+002  2.077E+003  7.772E+002  2.111E+003  1.901E+002  2.378E+003  3.257E+002  2.590E+003  5.400E+002  2.352E+003  3.046E+003  4.035E+003  2.037E+003  8.729E+002  1.653E+003  3.244E+003 -3.513E+002 -3.261E+003  2.831E+003  4.179E+003  1.207E+003  4.375E+003 -1.367E+003  6.782E+003  3.739E+003  3.349E+003  2.372E+003  1.805E+003  3.558E+003  4.836E+003  2.897E+003 -1.886E+003 -5.264E+003 -5.615E+002 -3.427E+001  5.283E+003  4.997E+002 -1.300E+004  3.274E+003 -3.437E+003  3.213E+003 -1.601E+003  3.319E+003  4.438E+003  6.736E+003  4.898E+002  3.213E+002  1.867E+002  1.060E+003  4.738E+002 -1.964E+003  1.030E+002  1.983E+003  3.060E+003  2.370E+003 -2.522E+002  4.108E+003  3.510E+003  4.461E+003  2.300E+003  1.541E+002 -1.392E+004 -2.724E+003  3.139E+003  2.053E+003 -2.800E+003 -9.457E+002 -1.969E+002  6.813E+002 -9.814E+001  1.407E+002 -1.313E+003 -5.154E+001  1.732E+003  3.721E+003  4.360E+002  2.460E+003  9.894E+002  3.121E+003  1.571E+002  2.828E+003  3.308E+003  4.017E+003  2.668E+003  2.214E+003  3.277E+003  5.468E+003  1.452E+003 -3.242E+003  2.883E+003  3.788E+003  2.820E+003  6.094E+003 -4.244E+003  5.523E+003  3.468E+003  4.582E+003  3.366E+003  2.769E+003  5.743E+003  7.049E+003  4.368E+003 -1.584E+003 -5.491E+003  3.794E+002  4.066E+002  7.283E+003 -2.380E+002 -1.382E+004  2.543E+003 -2.063E+003  3.360E+003 -7.754E+002  7.633E+003  7.773E+003  6.202E+003 -3.598E+000  5.886E+002  3.870E+001  1.174E+003 -3.616E+002  6.569E+000  3.217E+002  2.716E+003  3.936E+003  2.561E+003  5.135E+002  4.733E+003  3.404E+003  5.469E+003  3.713E+003  4.105E+002 -1.537E+004 -1.150E+003  5.638E+003  1.781E+003 -3.683E+003 -1.315E+003 -7.236E+001  5.556E+002 -2.745E+002 -5.543E+002 -5.034E+002  4.244E+002  1.290E+003  2.968E+003 -7.061E+001  2.335E+003  7.674E+002  3.746E+003 -8.392E+002  2.649E+003  2.974E+003  3.813E+003  2.147E+003  1.989E+003  3.064E+003  6.320E+003  2.968E+003 -2.768E+003  3.302E+003  4.495E+003  2.012E+003  7.965E+003 -3.721E+003  7.226E+003  3.488E+003  3.557E+003  3.104E+003  2.232E+003  5.528E+003  8.464E+003  6.013E+003 -2.430E+003 -9.682E+003  1.360E+003  1.502E+003  7.385E+003 -7.915E+002 -2.107E+004  2.120E+003 -1.560E+002  3.949E+003  4.897E+002  7.619E+003  7.200E+003  1.222E+004 -2.203E+002 -5.636E+001  1.067E+002  9.925E+002  5.841E+002  1.623E+003  8.116E+002  1.763E+003  4.088E+003  2.469E+003  5.175E+002  4.404E+003  2.336E+003  4.797E+003  3.374E+003 -5.769E+002 -1.736E+004 -1.844E+003  6.353E+003  1.160E+003 -3.560E+003 -8.748E+002  2.651E+002  1.083E+003 -5.546E+002 -2.764E+002 -6.970E+002  2.250E+003  1.370E+003 -7.517E+002  1.203E+002  3.375E+003  7.806E+002  3.434E+003 -2.889E+003  2.346E+003  3.526E+003  4.908E+003  2.815E+003  1.671E+003  2.714E+003  5.530E+003  1.874E+003 -4.173E+003  3.511E+003  5.787E+003  2.919E+003  6.914E+003 -3.765E+003  7.951E+003  4.525E+003  5.436E+003  3.532E+003  2.400E+003  5.369E+003  7.604E+003  5.851E+003 -1.014E+003 -9.326E+003  1.457E+003  9.413E+002  8.509E+003 -5.522E+001 -2.285E+004  2.600E+003 -1.694E+003  6.436E+003 -8.385E+001  7.612E+003  8.805E+003  7.626E+003 -1.827E+003  3.466E+002  9.651E+001  1.408E+003 -7.605E+001  3.399E+003  4.627E+002  2.729E+003  4.666E+003  3.333E+003  9.343E+002  4.578E+003  2.684E+003  6.247E+003  5.057E+003 -1.167E+003 -1.698E+004 -3.259E+003  5.880E+003  2.889E+003 -3.748E+003 -1.179E+003 -1.185E+002  8.708E+002 -2.698E+002 -2.697E+002 -3.638E+002  4.920E+002 -2.005E+003 -2.274E+003 -1.995E+002  2.940E+003  1.057E+003  4.405E+003 -4.150E+003  1.866E+003  3.258E+003  4.902E+003  3.464E+003  2.985E+003  3.593E+003  6.135E+003  2.810E+003 -2.072E+003  3.604E+003  6.307E+003  4.351E+003  9.132E+003 -1.937E+003  8.922E+003  5.990E+003  6.522E+003  6.179E+003  6.077E+003  9.044E+003  1.100E+004  7.263E+003 -2.284E+002 -7.237E+003  1.639E+003  2.918E+003  9.651E+003  2.655E+002 -2.045E+004  1.778E+003 -2.302E+003  5.135E+003 -4.451E+002  8.004E+003  7.749E+003  1.004E+004 -1.785E+003  2.122E+002  1.053E+002  1.337E+003 -8.805E+002  2.245E+003  1.245E+003  2.821E+003  5.621E+003  3.092E+003  1.010E+003  3.912E+003  4.122E+003  7.145E+003  4.611E+003 -5.301E+002 -1.838E+004 -2.336E+003  4.319E+003  9.813E+002 -3.453E+003 -4.612E+002  3.037E+002  7.293E+002 -1.228E+002  5.242E+002 -2.958E+002  2.607E+003 -1.047E+003 -3.737E+003 -6.393E+001  3.367E+003  1.531E+003  5.056E+003 -4.369E+003  2.711E+003  3.677E+003  5.184E+003  3.652E+003  3.290E+003  5.046E+003  7.422E+003  1.873E+003 -5.212E+003  3.551E+003  6.106E+003  4.134E+003  9.571E+003 -3.763E+003  9.464E+003  6.150E+003  6.343E+003  5.876E+003  6.467E+003  9.752E+003  9.844E+003  7.042E+003 -1.334E+003 -1.075E+004  1.723E+003  1.923E+003  9.440E+003  2.640E+002 -2.548E+004  1.617E+003 -2.712E+003  4.053E+003 -2.266E+003  1.088E+004  9.380E+003  1.099E+004 -9.353E+002  1.009E+002  2.317E+002  1.305E+003  1.575E+003  1.508E+003  9.365E+002  2.656E+003  5.032E+003  1.888E+003  1.592E+003  6.049E+003  4.539E+003  7.719E+003  4.574E+003 -4.024E+002 -2.118E+004 -3.772E+003  4.191E+003  1.301E+003 -4.165E+003 -1.342E+003  2.658E+002  1.483E+003 -5.615E+002 -4.567E+002 -1.463E+002  3.336E+003 -1.811E+003 -3.023E+003  6.791E+002  3.877E+003  8.503E+002  4.112E+003 -3.758E+003  3.717E+003  4.912E+003  6.086E+003  4.279E+003  2.972E+003  3.078E+003  4.287E+003  2.786E+003 -1.890E+003  4.714E+003  6.295E+003  2.889E+003  7.616E+003 -2.723E+003  9.975E+003  6.371E+003  7.526E+003  6.829E+003  5.411E+003  7.429E+003  9.077E+003  7.644E+003 -2.524E+002 -8.737E+003  5.448E+002  1.270E+003  8.410E+003  8.109E+002 -2.319E+004  3.736E+003 -3.785E+003  6.216E+003 -2.593E+003  7.560E+003  8.021E+003  1.123E+004 -1.354E+003  1.477E+002  2.205E+002  1.309E+003 -9.766E+001  1.207E+003  1.133E+003  3.229E+003  5.178E+003  3.414E+003  2.017E+002  5.625E+003  3.482E+003  7.526E+003  4.649E+003 -1.040E+003 -2.299E+004 -3.566E+003  5.581E+003  2.835E+003 -4.653E+003 -1.653E+003 -2.618E+002  5.363E+002 -1.301E+002 -4.539E+002 -8.306E+002 -1.911E+003 -1.665E+003 -2.755E+003 -2.347E+002  2.804E+003  1.701E+003  3.206E+003 -3.782E+003  3.997E+003  4.098E+003  4.753E+003  2.660E+003  3.095E+003  4.411E+003  8.796E+003  3.340E+003 -4.737E+003  4.524E+003  5.806E+003  3.660E+003  8.618E+003 -3.178E+003  1.185E+004  7.040E+003  4.678E+003  3.748E+003  2.677E+003  5.987E+003  7.798E+003  6.340E+003 -1.085E+002 -1.190E+004 -8.714E+002  2.266E+002  8.381E+003  1.556E+003 -2.762E+004  2.511E+003 -3.253E+003  2.895E+003 -1.282E+003  1.064E+004  9.922E+003  1.143E+004  1.545E+002  2.758E+002  1.838E+002  1.406E+003 -2.671E+003  2.498E+003  1.507E+003  3.636E+003  4.973E+003  3.829E+003  1.559E+003  6.767E+003  3.517E+003  5.374E+003  4.824E+003 -1.747E+002 -2.788E+004 -2.613E+003  5.063E+003  1.743E+003 -4.607E+003 -8.641E+002  7.103E+002  5.819E+002 -3.427E+002  6.516E+002 -1.046E+003  2.292E+003 -2.356E+003 -1.433E+003 -1.508E+002  4.199E+003  7.588E+002  4.908E+003 -4.095E+003  4.045E+003  5.208E+003  6.698E+003  3.828E+003  1.962E+003  4.366E+003  7.082E+003  2.774E+003 -3.022E+003  5.767E+003  7.424E+003  1.593E+003  9.101E+003 -3.911E+003  1.178E+004  6.661E+003  7.235E+003  3.890E+003  4.658E+002  7.295E+003  1.027E+004  7.425E+003 -9.694E+002 -1.061E+004 -1.608E+002 -1.557E+003  8.971E+003  1.056E+003 -2.815E+004  5.043E+003 -5.990E+003  4.835E+003 -4.469E+003  1.007E+004  1.013E+004  1.219E+004 -8.605E+002 -4.564E+002  1.034E+003  9.775E+002  7.750E+002  1.382E+003  2.448E+002  3.398E+003  5.067E+003  3.329E+003 -1.790E+002  8.302E+003  4.535E+003  8.234E+003  3.567E+003 -4.313E+002 -3.096E+004 -5.185E+003  4.745E+003  1.122E+002 -3.937E+003 -1.409E+003  2.240E+002  2.414E+003  1.151E+003  1.084E+003  5.257E+001 -1.244E+003 -1.563E+003 -2.416E+003  2.107E+003  4.124E+003  1.878E+003  5.408E+003 -2.257E+003  4.795E+003  6.050E+003  6.924E+003  2.801E+003  1.420E+003  4.588E+003  1.220E+004  6.174E+003 -5.290E+003  5.564E+003  4.501E+003 -4.024E+002  1.141E+004 -3.788E+003  1.321E+004  5.630E+003  2.716E+003  5.627E+002  1.552E+003  5.884E+003  1.131E+004  8.751E+003 -3.398E+003 -1.392E+004 -4.460E+003 -4.238E+003  1.264E+004 -4.888E+003 -3.066E+004  1.889E+003 -1.077E+004 -4.190E+003 -9.815E+003  9.163E+003  1.122E+004  1.145E+004 -2.978E+003 -2.620E+003 -1.081E+003 -7.910E+002 -1.114E+001  4.717E+003  8.372E+002  4.331E+002  2.594E+003  2.528E+003 -9.302E+002  4.955E+003  2.421E+003  3.748E+003 -2.351E+002 -4.530E+003 -3.061E+004 -9.129E+003 -1.122E+002 -7.835E+003 -6.704E+003  5.663E+003  6.265E+003  2.191E+003  2.810E+003 -6.153E+002  1.620E+003  5.090E+003  1.007E+003  8.710E+002  4.833E+003  3.319E+003 -3.749E+003  7.159E+003 -5.077E+003  8.910E+003  5.792E+003  3.355E+003 -7.285E+002 -5.111E+003  1.801E+003  1.055E+004  5.165E+003 -5.221E+003  4.760E+002 -2.205E+002 -9.635E+003  7.859E+003 -5.422E+003  2.237E+003  1.147E+003 -2.324E+003 -7.491E+003 -1.149E+004 -3.624E+003  4.237E+003  6.866E+003 -4.162E+003 -2.898E+004 -1.588E+004 -1.791E+004  2.926E+002 -5.972E+002 -4.719E+004 -1.360E+004 -2.383E+004 -1.667E+004 -2.475E+004 -9.847E+003 -1.425E+003  1.115E+004 -5.716E+003 -6.174E+003  1.764E+002 -2.190E+003 -5.917E+003  7.962E+002  1.748E+003 -2.899E+003 -1.255E+004 -1.504E+004  2.885E+002  8.119E+003 -1.838E+004 -2.421E+004 -1.968E+004 -3.852E+003 -2.517E+004 -3.956E+004 -3.618E+004 -2.856E+004 -7.717E+003  1.919E+004  1.074E+004  1.011E+004  3.371E+003 -1.216E+003  1.106E+004  7.560E+003  5.119E+002 -1.203E+004  1.878E+004 -2.023E+003 -1.684E+004 -1.243E+003 -6.711E+003  9.089E+003  2.241E+003 -1.165E+004 -2.279E+004 -3.499E+004 -2.226E+004 -1.934E+004 -1.190E+004 -3.757E+003 -1.422E+004 -4.514E+004 -5.871E+004 -2.846E+004 -2.821E+003 -2.505E+004 -5.028E+004 -8.060E+004 -7.927E+004 -8.175E+004 -5.413E+004 -3.888E+004 -1.774E+004  2.358E+003 -5.496E+004 -1.152E+005 -1.026E+005 -4.850E+004 -3.405E+003 -8.075E+004 -8.209E+004 -1.382E+005 -1.175E+005 -1.206E+005 -7.663E+004 -5.058E+004 -2.643E+004 -6.300E+003
        </DataArray>
        <DataArray type="Float32" Name="stress_yz" NumberOfComponents="1" format="ascii">
  9.009E+004  2.700E+005  4.326E+005  5.815E+005  7.071E+005  8.015E+005  8.713E+005  9.107E+005  9.236E+005 -2.939E+004  2.346E+005  4.393E+005  5.646E+005  6.040E+005 -1.600E+005 -3.599E+003  1.346E+005  2.536E+005  3.495E+005  4.247E+005  4.758E+005  5.082E+005  5.148E+005 -2.948E+005  1.936E+004  2.280E+005  3.452E+005  3.814E+005 -3.986E+005 -2.440E+005 -1.109E+005 -7.579E+003  7.319E+004  1.358E+005  1.756E+005  2.037E+005  2.073E+005 -4.741E+005 -1.655E+005  3.014E+004  1.374E+005  1.714E+005 -5.259E+005 -3.594E+005 -2.164E+005 -1.130E+005 -3.211E+004  2.872E+004  6.704E+004  9.535E+004  9.930E+004 -6.807E+004  2.609E+004  3.503E+004  4.093E+004  4.266E+004 -1.137E+005  7.326E+004  1.500E+005  1.930E+005  2.077E+005 -1.272E+005  1.092E+005  2.433E+005  3.209E+005  3.476E+005 -1.283E+005  1.091E+005  2.555E+005  3.434E+005  3.745E+005  2.113E+004  1.310E+004 -1.999E+004 -1.695E+004 -1.538E+004 -1.630E+004 -1.516E+004 -1.627E+004 -1.390E+004  3.372E+004  2.811E+004  5.335E+004  7.071E+004  7.843E+004  6.327E+004  7.185E+004  6.038E+004  7.836E+004  8.872E+004  1.028E+005  1.137E+005  1.210E+005  1.258E+005  1.184E+005  1.059E+005  1.448E+005  1.803E+005  1.972E+005  1.752E+005  1.753E+005  1.652E+005  1.978E+005  2.185E+005  2.475E+005  2.668E+005  2.831E+005  2.893E+005  2.134E+005  2.030E+005  2.623E+005  3.172E+005  3.421E+005  2.459E+005  2.470E+005  2.428E+005  2.838E+005  3.132E+005  3.510E+005  3.773E+005  3.975E+005  4.054E+005  2.482E+004  1.043E+003 -3.682E+003 -6.061E+003 -6.310E+003  1.299E+005  1.040E+005  9.945E+004  1.057E+005  1.097E+005  2.329E+005  2.018E+005  1.927E+005  2.022E+005  2.086E+005  2.815E+005  2.497E+005  2.409E+005  2.515E+005  2.596E+005  9.399E+003 -8.221E+002  1.357E+004  1.065E+004  1.233E+004  1.192E+004  1.237E+004  1.273E+004  1.209E+004  1.143E+005  8.281E+004  7.035E+004  6.504E+004  6.356E+004  2.128E+005  1.735E+005  1.560E+005  1.400E+005  1.346E+005  1.279E+005  1.256E+005  1.243E+005  1.235E+005  2.890E+005  2.271E+005  1.978E+005  1.853E+005  1.821E+005  3.626E+005  3.185E+005  2.915E+005  2.650E+005  2.535E+005  2.404E+005  2.356E+005  2.323E+005  2.314E+005  4.026E+005  3.307E+005  2.904E+005  2.713E+005  2.665E+005  4.346E+005  3.889E+005  3.582E+005  3.286E+005  3.143E+005  2.984E+005  2.923E+005  2.876E+005  2.863E+005  5.262E+003 -3.436E+003 -3.178E+003 -2.137E+003 -2.232E+003  1.755E+005  1.159E+005  9.112E+004  8.057E+004  7.755E+004  3.126E+005  2.415E+005  1.947E+005  1.717E+005  1.648E+005  3.826E+005  3.083E+005  2.529E+005  2.231E+005  2.131E+005  3.677E+004  2.324E+004  2.462E+004  2.134E+004  1.999E+004  1.881E+004  1.832E+004  1.837E+004  1.899E+004  1.337E+005  9.575E+004  8.084E+004  7.374E+004  7.163E+004  2.337E+005  1.962E+005  1.709E+005  1.547E+005  1.432E+005  1.351E+005  1.297E+005  1.263E+005  1.253E+005  3.105E+005  2.398E+005  1.993E+005  1.782E+005  1.709E+005  3.905E+005  3.473E+005  3.117E+005  2.817E+005  2.596E+005  2.421E+005  2.309E+005  2.235E+005  2.209E+005  4.288E+005  3.475E+005  2.902E+005  2.568E+005  2.450E+005  4.608E+005  4.163E+005  3.768E+005  3.422E+005  3.155E+005  2.935E+005  2.788E+005  2.692E+005  2.661E+005  6.626E+003 -6.555E+003 -8.769E+003 -9.053E+003 -9.090E+003  1.823E+005  1.182E+005  8.988E+004  7.611E+004  7.187E+004  3.283E+005  2.489E+005  1.956E+005  1.664E+005  1.567E+005  4.010E+005  3.184E+005  2.544E+005  2.170E+005  2.034E+005  3.811E+004  2.333E+004  2.732E+004  2.446E+004  2.464E+004  2.395E+004  2.432E+004  2.391E+004  2.410E+004  1.381E+005  9.817E+004  8.297E+004  7.567E+004  7.309E+004  2.380E+005  1.969E+005  1.723E+005  1.540E+005  1.429E+005  1.338E+005  1.284E+005  1.246E+005  1.232E+005  3.157E+005  2.429E+005  2.005E+005  1.784E+005  1.703E+005  3.938E+005  3.476E+005  3.128E+005  2.800E+005  2.577E+005  2.387E+005  2.272E+005  2.191E+005  2.165E+005  4.327E+005  3.498E+005  2.895E+005  2.546E+005  2.419E+005  4.641E+005  4.167E+005  3.783E+005  3.402E+005  3.129E+005  2.892E+005  2.746E+005  2.640E+005  2.604E+005  5.296E+003 -6.602E+003 -8.806E+003 -8.969E+003 -9.316E+003  1.834E+005  1.181E+005  8.884E+004  7.397E+004  6.887E+004  3.291E+005  2.486E+005  1.934E+005  1.624E+005  1.519E+005  4.016E+005  3.178E+005  2.520E+005  2.118E+005  1.983E+005  3.916E+004  2.440E+004  2.731E+004  2.468E+004  2.462E+004  2.433E+004  2.488E+004  2.377E+004  2.330E+004  1.368E+005  9.690E+004  8.192E+004  7.493E+004  7.211E+004  2.353E+005  1.952E+005  1.703E+005  1.524E+005  1.410E+005  1.322E+005  1.268E+005  1.229E+005  1.213E+005  3.117E+005  2.394E+005  1.971E+005  1.750E+005  1.674E+005  3.894E+005  3.443E+005  3.092E+005  2.770E+005  2.543E+005  2.356E+005  2.242E+005  2.158E+005  2.132E+005  4.276E+005  3.453E+005  2.850E+005  2.501E+005  2.375E+005  4.585E+005  4.126E+005  3.741E+005  3.364E+005  3.086E+005  2.851E+005  2.700E+005  2.599E+005  2.564E+005  5.261E+003 -6.585E+003 -8.914E+003 -9.283E+003 -8.999E+003  1.804E+005  1.161E+005  8.751E+004  7.313E+004  6.824E+004  3.236E+005  2.444E+005  1.904E+005  1.604E+005  1.495E+005  3.950E+005  3.121E+005  2.481E+005  2.091E+005  1.957E+005  3.830E+004  2.382E+004  2.676E+004  2.424E+004  2.424E+004  2.400E+004  2.443E+004  2.321E+004  2.244E+004  1.342E+005  9.510E+004  8.049E+004  7.353E+004  7.013E+004  2.307E+005  1.911E+005  1.669E+005  1.493E+005  1.384E+005  1.294E+005  1.240E+005  1.201E+005  1.187E+005  3.055E+005  2.348E+005  1.934E+005  1.715E+005  1.638E+005  3.815E+005  3.371E+005  3.028E+005  2.712E+005  2.490E+005  2.306E+005  2.190E+005  2.112E+005  2.085E+005  4.187E+005  3.385E+005  2.793E+005  2.447E+005  2.322E+005  4.490E+005  4.038E+005  3.664E+005  3.295E+005  3.025E+005  2.786E+005  2.637E+005  2.533E+005  2.502E+005  5.101E+003 -6.392E+003 -8.519E+003 -8.951E+003 -7.892E+003  1.757E+005  1.132E+005  8.540E+004  7.181E+004  6.740E+004  3.153E+005  2.381E+005  1.857E+005  1.568E+005  1.471E+005  3.851E+005  3.039E+005  2.412E+005  2.045E+005  1.916E+005  3.700E+004  2.295E+004  2.574E+004  2.339E+004  2.357E+004  2.299E+004  2.341E+004  2.289E+004  2.330E+004  1.295E+005  9.175E+004  7.780E+004  7.105E+004  6.820E+004  2.226E+005  1.845E+005  1.612E+005  1.443E+005  1.337E+005  1.251E+005  1.198E+005  1.163E+005  1.151E+005  2.947E+005  2.265E+005  1.869E+005  1.659E+005  1.584E+005  3.682E+005  3.254E+005  2.923E+005  2.620E+005  2.408E+005  2.230E+005  2.121E+005  2.042E+005  2.016E+005  4.037E+005  3.266E+005  2.701E+005  2.368E+005  2.247E+005  4.331E+005  3.898E+005  3.537E+005  3.183E+005  2.922E+005  2.695E+005  2.551E+005  2.446E+005  2.408E+005  4.828E+003 -6.111E+003 -8.292E+003 -8.423E+003 -8.609E+003  1.680E+005  1.081E+005  8.133E+004  6.801E+004  6.375E+004  3.016E+005  2.277E+005  1.770E+005  1.490E+005  1.396E+005  3.687E+005  2.905E+005  2.302E+005  1.944E+005  1.816E+005  3.537E+004  2.200E+004  2.462E+004  2.242E+004  2.260E+004  2.201E+004  2.235E+004  2.190E+004  2.196E+004  1.230E+005  8.726E+004  7.401E+004  6.730E+004  6.551E+004  2.112E+005  1.753E+005  1.531E+005  1.371E+005  1.269E+005  1.189E+005  1.137E+005  1.106E+005  1.094E+005  2.803E+005  2.155E+005  1.777E+005  1.576E+005  1.507E+005  3.502E+005  3.094E+005  2.779E+005  2.491E+005  2.291E+005  2.120E+005  2.016E+005  1.942E+005  1.921E+005  3.846E+005  3.110E+005  2.570E+005  2.252E+005  2.141E+005  4.119E+005  3.706E+005  3.364E+005  3.028E+005  2.781E+005  2.564E+005  2.426E+005  2.334E+005  2.303E+005  4.573E+003 -5.732E+003 -7.867E+003 -7.668E+003 -8.937E+003  1.591E+005  1.024E+005  7.715E+004  6.439E+004  6.025E+004  2.854E+005  2.157E+005  1.678E+005  1.413E+005  1.316E+005  3.485E+005  2.754E+005  2.184E+005  1.840E+005  1.719E+005  3.329E+004  2.047E+004  2.321E+004  2.094E+004  2.131E+004  2.064E+004  2.101E+004  2.059E+004  2.111E+004  1.157E+005  8.202E+004  6.954E+004  6.337E+004  6.171E+004  1.986E+005  1.648E+005  1.439E+005  1.288E+005  1.192E+005  1.116E+005  1.070E+005  1.039E+005  1.029E+005  2.635E+005  2.025E+005  1.670E+005  1.482E+005  1.419E+005  3.291E+005  2.908E+005  2.613E+005  2.342E+005  2.154E+005  1.993E+005  1.893E+005  1.827E+005  1.809E+005  3.614E+005  2.922E+005  2.417E+005  2.116E+005  2.016E+005  3.865E+005  3.479E+005  3.160E+005  2.845E+005  2.615E+005  2.409E+005  2.279E+005  2.196E+005  2.172E+005  4.492E+003 -5.086E+003 -7.183E+003 -7.328E+003 -7.448E+003  1.485E+005  9.564E+004  7.200E+004  6.010E+004  5.606E+004  2.663E+005  2.012E+005  1.563E+005  1.317E+005  1.230E+005  3.253E+005  2.572E+005  2.040E+005  1.715E+005  1.610E+005  3.062E+004  1.911E+004  2.140E+004  1.942E+004  1.971E+004  1.918E+004  1.955E+004  1.882E+004  1.872E+004  1.067E+005  7.575E+004  6.421E+004  5.872E+004  5.661E+004  1.833E+005  1.521E+005  1.329E+005  1.190E+005  1.101E+005  1.034E+005  9.914E+004  9.629E+004  9.504E+004  2.432E+005  1.871E+005  1.544E+005  1.371E+005  1.313E+005  3.041E+005  2.688E+005  2.414E+005  2.164E+005  1.991E+005  1.843E+005  1.755E+005  1.689E+005  1.668E+005  3.339E+005  2.696E+005  2.229E+005  1.958E+005  1.855E+005  3.581E+005  3.220E+005  2.920E+005  2.628E+005  2.413E+005  2.230E+005  2.113E+005  2.026E+005  1.991E+005  3.745E+003 -4.968E+003 -6.652E+003 -6.728E+003 -6.556E+003  1.354E+005  8.721E+004  6.601E+004  5.560E+004  5.183E+004  2.428E+005  1.835E+005  1.432E+005  1.212E+005  1.138E+005  2.967E+005  2.346E+005  1.867E+005  1.581E+005  1.489E+005  2.784E+004  1.732E+004  1.953E+004  1.772E+004  1.764E+004  1.738E+004  1.768E+004  1.709E+004  1.686E+004  9.673E+004  6.865E+004  5.825E+004  5.317E+004  5.166E+004  1.660E+005  1.378E+005  1.203E+005  1.077E+005  1.001E+005  9.340E+004  8.965E+004  8.724E+004  8.700E+004  2.202E+005  1.693E+005  1.395E+005  1.240E+005  1.185E+005  2.749E+005  2.429E+005  2.184E+005  1.957E+005  1.794E+005  1.664E+005  1.581E+005  1.528E+005  1.508E+005  3.020E+005  2.440E+005  2.015E+005  1.770E+005  1.674E+005  3.241E+005  2.913E+005  2.637E+005  2.371E+005  2.177E+005  2.007E+005  1.908E+005  1.822E+005  1.794E+005  3.614E+003 -4.385E+003 -5.808E+003 -5.683E+003 -6.362E+003  1.207E+005  7.785E+004  5.845E+004  4.923E+004  4.588E+004  2.170E+005  1.633E+005  1.276E+005  1.075E+005  1.011E+005  2.650E+005  2.091E+005  1.654E+005  1.407E+005  1.319E+005  2.406E+004  1.508E+004  1.704E+004  1.515E+004  1.552E+004  1.498E+004  1.584E+004  1.488E+004  1.580E+004  8.403E+004  5.982E+004  5.103E+004  4.644E+004  4.642E+004  1.447E+005  1.196E+005  1.047E+005  9.402E+004  8.752E+004  8.201E+004  7.837E+004  7.700E+004  7.706E+004  1.909E+005  1.474E+005  1.222E+005  1.089E+005  1.056E+005  2.389E+005  2.115E+005  1.896E+005  1.706E+005  1.575E+005  1.463E+005  1.401E+005  1.347E+005  1.331E+005  2.616E+005  2.117E+005  1.754E+005  1.551E+005  1.474E+005  2.799E+005  2.517E+005  2.289E+005  2.063E+005  1.901E+005  1.760E+005  1.671E+005  1.611E+005  1.588E+005  3.503E+003 -3.067E+003 -4.505E+003 -4.613E+003 -3.741E+003  1.026E+005  6.589E+004  4.956E+004  4.192E+004  3.854E+004  1.833E+005  1.372E+005  1.068E+005  8.954E+004  8.492E+004  2.224E+005  1.763E+005  1.395E+005  1.175E+005  1.110E+005  2.016E+004  1.192E+004  1.382E+004  1.203E+004  1.228E+004  1.181E+004  1.235E+004  1.134E+004  1.139E+004  6.823E+004  4.825E+004  4.065E+004  3.704E+004  3.335E+004  1.170E+005  9.707E+004  8.450E+004  7.520E+004  6.971E+004  6.480E+004  6.275E+004  5.861E+004  5.471E+004  1.553E+005  1.193E+005  9.712E+004  8.661E+004  7.727E+004  1.960E+005  1.727E+005  1.544E+005  1.371E+005  1.246E+005  1.156E+005  1.095E+005  1.038E+005  1.001E+005  2.130E+005  1.719E+005  1.397E+005  1.229E+005  1.120E+005  2.273E+005  2.041E+005  1.851E+005  1.663E+005  1.524E+005  1.410E+005  1.332E+005  1.256E+005  1.220E+005  3.392E+003 -1.811E+003 -3.062E+003 -3.181E+003 -2.511E+003  7.969E+004  5.180E+004  3.901E+004  3.191E+004  3.006E+004  1.431E+005  1.081E+005  8.378E+004  6.905E+004  6.606E+004  1.736E+005  1.380E+005  1.106E+005  9.112E+004  8.544E+004  1.452E+004  8.359E+003  1.006E+004  8.532E+003  8.880E+003  8.639E+003  9.346E+003  8.416E+003  7.075E+003  5.063E+004  3.570E+004  3.032E+004  2.780E+004  2.569E+004  8.707E+004  7.233E+004  6.291E+004  5.617E+004  5.215E+004  4.901E+004  4.739E+004  4.523E+004  4.486E+004  1.159E+005  8.885E+004  7.345E+004  6.493E+004  6.102E+004  1.453E+005  1.286E+005  1.159E+005  1.032E+005  9.405E+004  8.782E+004  8.404E+004  8.061E+004  7.839E+004  1.599E+005  1.290E+005  1.063E+005  9.342E+004  8.656E+004  1.708E+005  1.532E+005  1.386E+005  1.249E+005  1.151E+005  1.057E+005  1.003E+005  9.606E+004  9.391E+004  2.378E+003 -1.065E+003 -1.760E+003 -1.827E+003 -2.176E+003  5.726E+004  3.693E+004  2.800E+004  2.364E+004  2.330E+004  1.017E+005  7.704E+004  5.951E+004  5.183E+004  4.854E+004  1.254E+005  9.862E+004  7.871E+004  6.692E+004  6.275E+004  9.293E+003  5.338E+003  6.529E+003  5.264E+003  6.422E+003  5.199E+003  6.329E+003  5.199E+003  6.017E+003  3.362E+004  2.367E+004  2.007E+004  1.891E+004  1.684E+004  5.763E+004  4.754E+004  4.145E+004  3.736E+004  3.436E+004  3.265E+004  3.132E+004  3.001E+004  2.912E+004  7.730E+004  5.947E+004  4.877E+004  4.389E+004  4.070E+004  9.549E+004  8.444E+004  7.650E+004  6.851E+004  6.371E+004  5.877E+004  5.613E+004  5.315E+004  5.197E+004  1.059E+005  8.605E+004  7.067E+004  6.204E+004  5.741E+004  1.123E+005  1.010E+005  9.173E+004  8.223E+004  7.521E+004  7.003E+004  6.676E+004  6.263E+004  6.008E+004  1.924E+003  8.218E+000 -3.697E+002 -6.358E+002 -5.055E+002  3.244E+004  2.085E+004  1.581E+004  1.320E+004  1.331E+004  5.741E+004  4.283E+004  3.365E+004  2.776E+004  2.727E+004  7.085E+004  5.519E+004  4.377E+004  3.562E+004  3.638E+004  4.201E+003  1.374E+003  2.422E+003  1.557E+003  2.349E+003  1.107E+003  6.487E+002  3.150E+003  3.508E+003  1.335E+004  9.045E+003  7.225E+003  5.973E+003  6.982E+003  2.255E+004  1.885E+004  1.610E+004  1.371E+004  1.217E+004  1.173E+004  1.199E+004  1.065E+004  1.003E+004  3.049E+004  2.301E+004  1.841E+004  1.579E+004  1.419E+004  3.902E+004  3.388E+004  2.977E+004  2.666E+004  2.438E+004  2.186E+004  2.006E+004  1.842E+004  1.832E+004  4.165E+004  3.327E+004  2.696E+004  2.356E+004  2.048E+004  4.371E+004  3.891E+004  3.568E+004  3.082E+004  2.750E+004  2.529E+004  2.429E+004  2.229E+004  2.104E+004  1.435E+003  1.567E+003  1.089E+003  2.084E+003 -1.444E+003  4.828E+003  2.919E+003  2.879E+003  1.957E+003  1.385E+003  7.038E+003  5.182E+003  4.466E+003  2.679E+003  2.334E+003  8.525E+003  7.094E+003  5.552E+003  5.168E+003  2.984E+003 -3.045E+003 -2.636E+003 -2.014E+003 -2.994E+003 -1.773E+003 -2.821E+003 -1.181E+003 -3.457E+003 -2.794E+003 -9.028E+003 -6.698E+003 -5.826E+003 -4.385E+003 -4.035E+003 -1.498E+004 -1.302E+004 -1.155E+004 -1.016E+004 -9.770E+003 -8.673E+003 -8.185E+003 -7.994E+003 -7.049E+003 -2.009E+004 -1.549E+004 -1.333E+004 -1.084E+004 -1.047E+004 -2.444E+004 -2.176E+004 -1.934E+004 -1.783E+004 -1.634E+004 -1.537E+004 -1.444E+004 -1.419E+004 -1.447E+004 -2.747E+004 -2.190E+004 -1.799E+004 -1.684E+004 -1.592E+004 -2.987E+004 -2.698E+004 -2.498E+004 -2.300E+004 -2.115E+004 -1.942E+004 -1.769E+004 -1.673E+004 -1.730E+004  1.035E+003  2.526E+003  3.428E+003  1.557E+003  2.635E+003 -2.660E+004 -1.713E+004 -1.352E+004 -1.032E+004 -1.024E+004 -4.869E+004 -3.776E+004 -2.940E+004 -2.462E+004 -2.313E+004 -5.953E+004 -4.738E+004 -3.792E+004 -3.217E+004 -2.965E+004 -9.745E+003 -7.071E+003 -6.946E+003 -7.514E+003 -7.286E+003 -7.068E+003 -6.161E+003 -6.672E+003 -5.628E+003 -3.340E+004 -2.414E+004 -2.048E+004 -1.918E+004 -1.904E+004 -5.727E+004 -4.783E+004 -4.224E+004 -3.813E+004 -3.474E+004 -3.277E+004 -3.107E+004 -3.172E+004 -3.173E+004 -7.532E+004 -5.871E+004 -4.801E+004 -4.435E+004 -4.325E+004 -9.433E+004 -8.366E+004 -7.581E+004 -6.832E+004 -6.325E+004 -5.880E+004 -5.636E+004 -5.564E+004 -5.584E+004 -1.022E+005 -8.362E+004 -7.114E+004 -6.251E+004 -6.155E+004 -1.115E+005 -1.010E+005 -9.172E+004 -8.267E+004 -7.625E+004 -7.188E+004 -6.959E+004 -6.740E+004 -6.682E+004 -6.212E+002  3.664E+003  4.744E+003  4.853E+003  4.624E+003 -5.904E+004 -3.805E+004 -2.938E+004 -2.366E+004 -2.366E+004 -1.074E+005 -8.222E+004 -6.428E+004 -5.526E+004 -5.081E+004 -1.324E+005 -1.044E+005 -8.362E+004 -7.027E+004 -6.566E+004 -1.790E+004 -1.145E+004 -1.204E+004 -1.241E+004 -1.194E+004 -1.179E+004 -1.033E+004 -1.200E+004 -1.327E+004 -5.890E+004 -4.274E+004 -3.654E+004 -3.344E+004 -3.286E+004 -1.010E+005 -8.497E+004 -7.453E+004 -6.662E+004 -6.233E+004 -5.830E+004 -5.588E+004 -5.420E+004 -5.404E+004 -1.335E+005 -1.041E+005 -8.725E+004 -7.634E+004 -7.505E+004 -1.663E+005 -1.482E+005 -1.336E+005 -1.209E+005 -1.121E+005 -1.044E+005 -9.965E+004 -9.645E+004 -9.533E+004 -1.841E+005 -1.500E+005 -1.250E+005 -1.112E+005 -1.062E+005 -1.981E+005 -1.790E+005 -1.637E+005 -1.483E+005 -1.362E+005 -1.260E+005 -1.189E+005 -1.154E+005 -1.141E+005 -1.304E+003  4.994E+003  7.012E+003  6.308E+003  6.981E+003 -9.402E+004 -6.065E+004 -4.607E+004 -3.954E+004 -3.617E+004 -1.710E+005 -1.290E+005 -1.018E+005 -8.696E+004 -8.100E+004 -2.089E+005 -1.654E+005 -1.307E+005 -1.120E+005 -1.065E+005 -2.505E+004 -1.658E+004 -1.793E+004 -1.741E+004 -1.633E+004 -1.817E+004 -1.737E+004 -1.748E+004 -1.363E+004 -8.691E+004 -6.226E+004 -5.319E+004 -4.790E+004 -4.663E+004 -1.483E+005 -1.244E+005 -1.090E+005 -9.832E+004 -9.096E+004 -8.467E+004 -8.149E+004 -8.001E+004 -7.921E+004 -1.973E+005 -1.527E+005 -1.259E+005 -1.139E+005 -1.093E+005 -2.458E+005 -2.173E+005 -1.957E+005 -1.773E+005 -1.644E+005 -1.524E+005 -1.446E+005 -1.395E+005 -1.384E+005 -2.691E+005 -2.201E+005 -1.831E+005 -1.621E+005 -1.556E+005 -2.904E+005 -2.629E+005 -2.403E+005 -2.159E+005 -1.979E+005 -1.836E+005 -1.743E+005 -1.686E+005 -1.679E+005 -2.099E+003  6.801E+003  9.565E+003  8.800E+003  8.221E+003 -1.316E+005 -8.509E+004 -6.580E+004 -5.474E+004 -5.249E+004 -2.404E+005 -1.830E+005 -1.446E+005 -1.212E+005 -1.133E+005 -2.931E+005 -2.323E+005 -1.859E+005 -1.580E+005 -1.495E+005 -3.439E+004 -2.277E+004 -2.407E+004 -2.307E+004 -2.233E+004 -2.350E+004 -2.128E+004 -2.240E+004 -2.058E+004 -1.173E+005 -8.460E+004 -7.150E+004 -6.511E+004 -6.452E+004 -2.025E+005 -1.688E+005 -1.475E+005 -1.327E+005 -1.228E+005 -1.144E+005 -1.086E+005 -1.068E+005 -1.089E+005 -2.663E+005 -2.077E+005 -1.716E+005 -1.524E+005 -1.499E+005 -3.336E+005 -2.965E+005 -2.678E+005 -2.397E+005 -2.211E+005 -2.060E+005 -1.978E+005 -1.903E+005 -1.866E+005 -3.674E+005 -2.978E+005 -2.482E+005 -2.198E+005 -2.109E+005 -3.939E+005 -3.559E+005 -3.242E+005 -2.923E+005 -2.684E+005 -2.500E+005 -2.380E+005 -2.299E+005 -2.274E+005 -2.845E+003  9.130E+003  1.112E+004  1.104E+004  1.184E+004 -1.758E+005 -1.134E+005 -8.624E+004 -7.222E+004 -6.729E+004 -3.181E+005 -2.416E+005 -1.891E+005 -1.612E+005 -1.484E+005 -3.872E+005 -3.060E+005 -2.443E+005 -2.076E+005 -1.931E+005 -4.480E+004 -2.901E+004 -3.125E+004 -3.004E+004 -2.817E+004 -2.881E+004 -3.008E+004 -2.816E+004 -2.900E+004 -1.520E+005 -1.087E+005 -9.211E+004 -8.584E+004 -8.246E+004 -2.592E+005 -2.174E+005 -1.902E+005 -1.705E+005 -1.580E+005 -1.489E+005 -1.438E+005 -1.407E+005 -1.412E+005 -3.461E+005 -2.671E+005 -2.210E+005 -1.969E+005 -1.926E+005 -4.310E+005 -3.819E+005 -3.448E+005 -3.103E+005 -2.861E+005 -2.654E+005 -2.526E+005 -2.455E+005 -2.464E+005 -4.716E+005 -3.850E+005 -3.191E+005 -2.820E+005 -2.739E+005 -5.066E+005 -4.574E+005 -4.171E+005 -3.766E+005 -3.457E+005 -3.196E+005 -3.020E+005 -2.948E+005 -2.938E+005 -3.107E+003  1.066E+004  1.346E+004  1.355E+004  1.125E+004 -2.172E+005 -1.426E+005 -1.093E+005 -9.337E+004 -8.664E+004 -3.953E+005 -3.012E+005 -2.388E+005 -2.036E+005 -1.894E+005 -4.833E+005 -3.841E+005 -3.097E+005 -2.634E+005 -2.478E+005 -5.326E+004 -3.429E+004 -3.822E+004 -3.377E+004 -3.233E+004 -3.287E+004 -2.899E+004 -2.943E+004 -2.964E+004 -1.847E+005 -1.317E+005 -1.114E+005 -1.010E+005 -1.004E+005 -3.167E+005 -2.638E+005 -2.302E+005 -2.069E+005 -1.918E+005 -1.813E+005 -1.765E+005 -1.699E+005 -1.695E+005 -4.202E+005 -3.256E+005 -2.707E+005 -2.437E+005 -2.355E+005 -5.258E+005 -4.671E+005 -4.214E+005 -3.785E+005 -3.484E+005 -3.242E+005 -3.106E+005 -3.019E+005 -3.005E+005 -5.786E+005 -4.722E+005 -3.925E+005 -3.479E+005 -3.361E+005 -6.228E+005 -5.622E+005 -5.117E+005 -4.630E+005 -4.280E+005 -3.954E+005 -3.743E+005 -3.652E+005 -3.648E+005 -4.867E+003  9.489E+003  1.175E+004  1.650E+004  1.166E+004 -2.595E+005 -1.722E+005 -1.349E+005 -1.181E+005 -1.151E+005 -4.689E+005 -3.616E+005 -2.906E+005 -2.549E+005 -2.426E+005 -5.718E+005 -4.598E+005 -3.770E+005 -3.317E+005 -3.138E+005 -6.205E+004 -4.282E+004 -4.568E+004 -4.449E+004 -4.428E+004 -4.056E+004 -3.858E+004 -4.035E+004 -3.750E+004 -2.114E+005 -1.552E+005 -1.343E+005 -1.248E+005 -1.174E+005 -3.621E+005 -3.048E+005 -2.704E+005 -2.459E+005 -2.299E+005 -2.182E+005 -2.082E+005 -2.052E+005 -2.004E+005 -4.826E+005 -3.826E+005 -3.231E+005 -2.953E+005 -2.832E+005 -6.088E+005 -5.453E+005 -4.971E+005 -4.520E+005 -4.209E+005 -3.970E+005 -3.818E+005 -3.717E+005 -3.650E+005 -6.702E+005 -5.559E+005 -4.758E+005 -4.299E+005 -4.124E+005 -7.195E+005 -6.539E+005 -6.003E+005 -5.498E+005 -5.128E+005 -4.860E+005 -4.704E+005 -4.541E+005 -4.450E+005  8.599E+003  2.049E+004  2.133E+004  2.275E+004  2.209E+004 -2.522E+005 -1.858E+005 -1.603E+005 -1.528E+005 -1.568E+005 -4.946E+005 -4.036E+005 -3.552E+005 -3.397E+005 -3.417E+005 -6.311E+005 -5.272E+005 -4.686E+005 -4.434E+005 -4.494E+005 -5.508E+004 -5.478E+004 -5.832E+004 -5.747E+004 -6.212E+004 -5.637E+004 -5.116E+004 -5.512E+004 -5.641E+004 -1.877E+005 -1.782E+005 -1.754E+005 -1.780E+005 -1.670E+005 -3.230E+005 -3.080E+005 -2.988E+005 -2.915E+005 -2.914E+005 -2.955E+005 -3.011E+005 -2.924E+005 -2.808E+005 -4.348E+005 -3.909E+005 -3.805E+005 -3.876E+005 -3.670E+005 -5.437E+005 -5.041E+005 -4.791E+005 -4.669E+005 -4.655E+005 -4.661E+005 -4.736E+005 -4.584E+005 -4.455E+005 -5.931E+005 -5.027E+005 -4.871E+005 -4.962E+005 -4.754E+005 -6.320E+005 -5.645E+005 -5.208E+005 -5.092E+005 -5.111E+005 -5.097E+005 -5.162E+005 -5.029E+005 -4.952E+005
        </DataArray>
        <DataArray type="Float32" Name="stress_xz" NumberOfComponents="1" format="ascii">
  1.265E+006  9.243E+005  7.991E+005  6.971E+005  4.597E+005  3.648E+005  2.344E+005  1.121E+005 -1.381E+004  1.137E+006  7.187E+005  4.145E+005  2.127E+005 -1.278E+004  1.009E+006  7.276E+005  6.378E+005  5.515E+005  3.672E+005  2.950E+005  1.894E+005  9.102E+004 -1.179E+004  8.095E+005  5.128E+005  2.962E+005  1.522E+005 -9.911E+003  6.081E+005  4.419E+005  3.857E+005  3.289E+005  2.227E+005  1.775E+005  1.131E+005  5.394E+004 -8.150E+003  3.117E+005  1.969E+005  1.117E+005  5.538E+004 -6.201E+003  1.318E+004  8.521E+003  5.780E+003  2.343E+003 -1.074E+003 -2.193E+003 -3.635E+003 -4.483E+003 -4.533E+003  1.982E+005  3.225E+005  3.183E+005  1.659E+005 -9.836E+003  9.312E+004  1.943E+005  2.200E+005  1.194E+005 -6.231E+003  5.049E+004  1.012E+005  1.193E+005  6.689E+004 -3.208E+003  1.570E+003  8.897E+002  1.030E+003 -1.521E+002 -8.737E+001 -1.208E+005 -4.165E+004 -1.804E+004 -1.320E+004  2.383E+004  3.146E+004  4.630E+004  1.999E+004 -6.411E+003 -1.077E+005 -2.808E+004  1.284E+004  3.608E+004 -5.730E+003 -7.889E+004 -3.207E+004 -2.834E+004 -2.007E+004  6.408E+003  1.425E+004  2.824E+004  1.140E+004 -5.141E+003 -6.647E+004 -3.431E+004 -3.454E+003  1.854E+004 -3.495E+003 -4.767E+004 -2.815E+004 -3.196E+004 -2.353E+004 -6.533E+003  9.707E+002  1.165E+004  4.661E+003 -1.998E+003 -2.545E+004 -1.806E+004 -5.250E+003  5.722E+003 -9.757E+001 -1.411E+003 -8.980E+002 -1.909E+002  1.328E+002  1.623E+002  5.898E+002  1.570E+003  1.556E+003  1.553E+003 -1.931E+004 -2.915E+004 -2.958E+004 -1.452E+004 -9.866E+003  9.686E+001 -1.623E+004 -2.428E+004 -1.488E+004 -7.262E+003  3.209E+003 -8.273E+003 -1.415E+004 -1.003E+004 -3.769E+003  6.187E+002  3.730E+002  6.223E+002  1.024E+003  1.587E+003 -2.469E+004 -6.734E+004 -9.654E+004 -8.872E+004 -9.076E+004 -7.182E+004 -5.759E+004 -3.239E+004 -9.197E+003 -1.283E+004 -7.274E+004 -7.668E+004 -5.043E+004 -7.913E+003 -1.521E+004 -3.891E+004 -5.630E+004 -5.849E+004 -6.363E+004 -5.211E+004 -4.316E+004 -2.414E+004 -6.701E+003 -1.040E+004 -3.830E+004 -4.743E+004 -3.367E+004 -4.955E+003 -1.029E+004 -1.924E+004 -2.548E+004 -2.910E+004 -3.392E+004 -2.858E+004 -2.426E+004 -1.346E+004 -3.309E+003 -5.006E+003 -1.153E+004 -1.576E+004 -1.152E+004 -1.475E+003 -7.210E+002 -2.381E+002  4.984E+002  6.161E+002  8.668E+002  8.657E+002  8.809E+002  5.276E+002  4.009E+002 -7.934E+003 -9.535E+004 -9.956E+004 -6.709E+004 -9.759E+003  4.036E+003 -5.387E+004 -6.878E+004 -4.911E+004 -7.220E+003  2.169E+003 -2.319E+004 -3.494E+004 -2.658E+004 -3.648E+003 -1.505E+002  7.136E+002  1.310E+003  1.735E+003  1.761E+003 -2.909E+004 -6.843E+004 -1.035E+005 -1.085E+005 -1.127E+005 -9.516E+004 -7.755E+004 -4.373E+004 -9.595E+003 -1.515E+004 -7.864E+004 -9.375E+004 -6.632E+004 -8.109E+003 -1.058E+004 -3.382E+004 -5.913E+004 -6.914E+004 -7.652E+004 -6.681E+004 -5.597E+004 -3.181E+004 -6.634E+003 -6.121E+003 -4.011E+004 -5.598E+004 -4.250E+004 -5.048E+003 -5.331E+003 -1.507E+004 -2.578E+004 -3.292E+004 -3.881E+004 -3.486E+004 -3.027E+004 -1.712E+004 -3.464E+003 -2.482E+003 -1.193E+004 -1.765E+004 -1.395E+004 -1.222E+003 -7.429E+002  8.480E+001 -5.171E+002  4.435E+002  1.088E+003  5.206E+002  1.169E+003  4.560E+002  1.076E+003 -2.048E+004 -1.048E+005 -1.137E+005 -7.848E+004 -8.421E+003 -3.667E+003 -5.939E+004 -7.712E+004 -5.643E+004 -5.877E+003 -9.127E+002 -2.552E+004 -3.864E+004 -3.016E+004 -2.581E+003 -6.491E+002  5.556E+002  9.110E+002  1.571E+003  1.373E+003 -2.094E+004 -6.734E+004 -1.084E+005 -1.117E+005 -1.173E+005 -9.880E+004 -8.077E+004 -4.456E+004 -8.524E+003 -6.904E+003 -8.163E+004 -9.739E+004 -6.900E+004 -7.208E+003 -4.163E+003 -3.220E+004 -6.123E+004 -7.085E+004 -7.940E+004 -6.902E+004 -5.801E+004 -3.213E+004 -5.861E+003 -1.198E+003 -4.116E+004 -5.773E+004 -4.375E+004 -4.283E+003 -2.366E+003 -1.386E+004 -2.627E+004 -3.315E+004 -3.969E+004 -3.557E+004 -3.065E+004 -1.699E+004 -2.705E+003 -5.780E+002 -1.184E+004 -1.804E+004 -1.432E+004 -2.691E+002  1.937E+002  4.321E+002  7.743E+001  3.752E+002  1.127E+003  1.010E+003  9.604E+002  1.493E+003  2.098E+003 -1.994E+004 -1.077E+005 -1.170E+005 -8.099E+004 -7.876E+003 -3.359E+003 -6.084E+004 -7.929E+004 -5.807E+004 -5.881E+003 -1.142E+003 -2.598E+004 -3.979E+004 -3.098E+004 -2.605E+003 -4.354E+002  5.731E+002  6.958E+002  1.412E+003  1.461E+003 -2.068E+004 -6.663E+004 -1.072E+005 -1.112E+005 -1.167E+005 -9.849E+004 -8.032E+004 -4.442E+004 -7.606E+003 -6.845E+003 -8.084E+004 -9.685E+004 -6.859E+004 -6.321E+003 -3.848E+003 -3.178E+004 -6.064E+004 -7.052E+004 -7.893E+004 -6.872E+004 -5.766E+004 -3.164E+004 -5.104E+003 -9.331E+002 -4.080E+004 -5.729E+004 -4.334E+004 -3.478E+003 -2.126E+003 -1.364E+004 -2.605E+004 -3.315E+004 -3.941E+004 -3.522E+004 -3.013E+004 -1.638E+004 -1.964E+003 -1.459E+002 -1.170E+004 -1.790E+004 -1.386E+004  6.085E+002  3.709E+002  4.151E+002  1.997E+002  7.998E+002  9.295E+002  1.229E+003  1.575E+003  2.154E+003  3.025E+003 -2.007E+004 -1.058E+005 -1.150E+005 -7.976E+004 -7.906E+003 -3.552E+003 -5.968E+004 -7.781E+004 -5.704E+004 -5.868E+003 -1.424E+003 -2.529E+004 -3.862E+004 -3.005E+004 -2.316E+003 -6.392E+001  7.117E+002  1.473E+003  1.893E+003  2.145E+003 -2.003E+004 -6.488E+004 -1.046E+005 -1.083E+005 -1.136E+005 -9.590E+004 -7.839E+004 -4.358E+004 -8.148E+003 -6.453E+003 -7.878E+004 -9.419E+004 -6.682E+004 -6.741E+003 -3.558E+003 -3.080E+004 -5.899E+004 -6.850E+004 -7.662E+004 -6.671E+004 -5.602E+004 -3.090E+004 -5.338E+003 -7.800E+002 -3.955E+004 -5.558E+004 -4.194E+004 -3.368E+003 -1.993E+003 -1.293E+004 -2.510E+004 -3.179E+004 -3.812E+004 -3.388E+004 -2.899E+004 -1.560E+004 -1.413E+003  2.317E+002 -1.044E+004 -1.659E+004 -1.263E+004  6.725E+002  1.459E+003  1.252E+003  1.718E+003  1.727E+003  2.377E+003  2.630E+003  2.807E+003  3.169E+003  2.733E+003 -1.948E+004 -1.026E+005 -1.111E+005 -7.649E+004 -7.464E+003 -3.441E+003 -5.772E+004 -7.497E+004 -5.455E+004 -5.132E+003 -1.505E+003 -2.436E+004 -3.678E+004 -2.816E+004 -1.504E+003  1.055E+002  8.162E+002  2.006E+003  2.862E+003  3.422E+003 -1.900E+004 -6.234E+004 -1.005E+005 -1.038E+005 -1.087E+005 -9.179E+004 -7.478E+004 -4.125E+004 -7.044E+003 -6.028E+003 -7.554E+004 -9.009E+004 -6.356E+004 -5.918E+003 -3.325E+003 -2.947E+004 -5.648E+004 -6.550E+004 -7.322E+004 -6.356E+004 -5.316E+004 -2.921E+004 -4.781E+003 -6.164E+002 -3.763E+004 -5.281E+004 -3.970E+004 -2.940E+003 -1.735E+003 -1.208E+004 -2.361E+004 -3.008E+004 -3.580E+004 -3.202E+004 -2.739E+004 -1.443E+004 -1.129E+003  4.976E+002 -9.426E+003 -1.540E+004 -1.130E+004  7.929E+002  1.513E+003  1.386E+003  2.331E+003  2.692E+003  2.720E+003  3.541E+003  3.663E+003  3.492E+003  2.867E+003 -1.876E+004 -9.797E+004 -1.060E+005 -7.234E+004 -5.741E+003 -3.335E+003 -5.510E+004 -7.132E+004 -5.142E+004 -3.494E+003 -1.480E+003 -2.322E+004 -3.491E+004 -2.630E+004 -5.650E+002 -3.774E+002  7.890E+002  1.909E+003  3.243E+003  3.977E+003 -1.827E+004 -5.899E+004 -9.513E+004 -9.815E+004 -1.026E+005 -8.620E+004 -6.990E+004 -3.725E+004 -4.289E+003 -5.871E+003 -7.145E+004 -8.495E+004 -5.917E+004 -3.259E+003 -3.228E+003 -2.780E+004 -5.329E+004 -6.178E+004 -6.901E+004 -5.950E+004 -4.913E+004 -2.604E+004 -2.241E+003 -4.027E+002 -3.542E+004 -4.961E+004 -3.650E+004 -1.175E+003 -1.245E+003 -1.135E+004 -2.214E+004 -2.815E+004 -3.351E+004 -2.958E+004 -2.493E+004 -1.242E+004 -5.609E+001 -1.510E+002 -8.903E+003 -1.428E+004 -1.017E+004  2.250E+003 -2.036E+002  1.289E+003  2.033E+003  2.484E+003  2.628E+003  3.538E+003  3.788E+003  3.987E+003  4.457E+003 -1.759E+004 -9.240E+004 -9.972E+004 -6.766E+004 -4.075E+003 -3.221E+003 -5.189E+004 -6.691E+004 -4.796E+004 -1.885E+003 -1.079E+003 -2.165E+004 -3.260E+004 -2.436E+004  6.501E+002 -8.421E+002  1.052E+003  2.729E+003  3.783E+003  4.539E+003 -1.653E+004 -5.543E+004 -8.930E+004 -9.207E+004 -9.619E+004 -8.043E+004 -6.475E+004 -3.383E+004 -2.362E+003 -5.173E+003 -6.702E+004 -7.951E+004 -5.481E+004 -1.635E+003 -3.043E+003 -2.603E+004 -4.998E+004 -5.782E+004 -6.446E+004 -5.540E+004 -4.555E+004 -2.363E+004 -9.310E+002 -3.477E+002 -3.320E+004 -4.630E+004 -3.371E+004  1.599E+002 -1.113E+003 -1.066E+004 -2.074E+004 -2.626E+004 -3.126E+004 -2.732E+004 -2.283E+004 -1.110E+004  1.242E+003 -4.641E+002 -8.536E+003 -1.315E+004 -9.224E+003  2.647E+003 -8.935E+002  9.456E+002  1.636E+003  2.123E+003  2.745E+003  2.906E+003  3.599E+003  4.362E+003  4.186E+003 -1.640E+004 -8.598E+004 -9.255E+004 -6.238E+004 -3.231E+003 -3.047E+003 -4.824E+004 -6.212E+004 -4.404E+004 -1.240E+003 -1.203E+003 -2.006E+004 -3.028E+004 -2.214E+004  1.035E+003 -9.723E+000  8.408E+002  2.700E+003  3.771E+003  4.883E+003 -1.569E+004 -5.090E+004 -8.192E+004 -8.433E+004 -8.803E+004 -7.357E+004 -5.910E+004 -3.108E+004 -2.504E+003 -4.996E+003 -6.150E+004 -7.272E+004 -5.005E+004 -1.819E+003 -2.755E+003 -2.389E+004 -4.588E+004 -5.288E+004 -5.886E+004 -5.057E+004 -4.159E+004 -2.162E+004 -1.153E+003 -4.476E+002 -3.045E+004 -4.213E+004 -3.073E+004  3.293E+002 -1.350E+003 -9.878E+003 -1.897E+004 -2.397E+004 -2.826E+004 -2.472E+004 -2.070E+004 -9.458E+003  1.756E+003 -6.272E+002 -8.259E+003 -1.181E+004 -7.798E+003  2.914E+003 -8.598E+002  1.066E+002  5.934E+002  2.020E+003  2.526E+003  3.392E+003  4.328E+003  4.362E+003  4.080E+003 -1.513E+004 -7.794E+004 -8.345E+004 -5.612E+004 -2.566E+003 -2.763E+003 -4.351E+004 -5.587E+004 -3.930E+004 -7.013E+002 -1.069E+003 -1.779E+004 -2.660E+004 -1.913E+004  1.268E+003  5.316E+002  2.544E+003  3.794E+003  4.754E+003  5.171E+003 -1.409E+004 -4.580E+004 -7.373E+004 -7.586E+004 -7.902E+004 -6.595E+004 -5.301E+004 -2.798E+004 -2.718E+003 -4.440E+003 -5.522E+004 -6.516E+004 -4.486E+004 -1.965E+003 -2.461E+003 -2.144E+004 -4.104E+004 -4.738E+004 -5.262E+004 -4.517E+004 -3.726E+004 -1.936E+004 -1.139E+003 -4.178E+002 -2.723E+004 -3.750E+004 -2.726E+004  6.605E+002 -1.189E+003 -8.586E+003 -1.702E+004 -2.095E+004 -2.488E+004 -2.176E+004 -1.807E+004 -8.200E+003  2.497E+003 -3.287E+002 -6.574E+003 -1.011E+004 -5.996E+003  3.532E+003 -6.206E+002  2.181E+002  1.891E+003  1.580E+003  3.119E+003  4.253E+003  5.291E+003  4.776E+003  4.688E+003 -1.324E+004 -6.928E+004 -7.411E+004 -4.977E+004 -2.752E+003 -2.466E+003 -3.873E+004 -4.962E+004 -3.479E+004 -6.059E+002 -1.024E+003 -1.601E+004 -2.378E+004 -1.670E+004  1.473E+003  5.105E+002  1.592E+003  3.404E+003  4.610E+003  5.486E+003 -1.150E+004 -3.975E+004 -6.375E+004 -6.568E+004 -6.854E+004 -5.692E+004 -4.513E+004 -2.348E+004 -2.502E+003 -3.356E+003 -4.783E+004 -5.649E+004 -3.857E+004 -1.530E+003 -1.941E+003 -1.844E+004 -3.565E+004 -4.100E+004 -4.565E+004 -3.911E+004 -3.224E+004 -1.683E+004 -7.618E+002 -3.703E+002 -2.333E+004 -3.237E+004 -2.398E+004  5.596E+002 -1.340E+003 -7.387E+003 -1.407E+004 -1.805E+004 -2.139E+004 -1.912E+004 -1.614E+004 -7.292E+003  1.882E+003  3.146E+002 -6.176E+003 -8.693E+003 -5.750E+003  4.545E+003  2.416E+003  4.180E+002  2.377E+002  2.167E+003  1.894E+003  3.793E+003  4.517E+003  5.384E+003  6.774E+003 -1.073E+004 -5.877E+004 -6.337E+004 -4.298E+004 -3.035E+003 -2.246E+003 -3.300E+004 -4.259E+004 -3.028E+004 -1.118E+003 -1.016E+003 -1.400E+004 -2.058E+004 -1.420E+004  7.334E+002  8.743E+002  6.911E+002  2.027E+003  3.542E+003  3.405E+003 -9.257E+003 -3.331E+004 -5.310E+004 -5.513E+004 -5.765E+004 -4.865E+004 -4.022E+004 -2.189E+004 -3.200E+003 -3.181E+003 -3.991E+004 -4.771E+004 -3.343E+004 -2.412E+003 -2.496E+003 -1.573E+004 -2.988E+004 -3.474E+004 -3.869E+004 -3.299E+004 -2.730E+004 -1.397E+004 -1.682E+003 -6.361E+001 -2.056E+004 -2.765E+004 -1.954E+004 -3.868E+002  1.106E+002 -6.744E+003 -1.382E+004 -1.584E+004 -1.862E+004 -1.590E+004 -1.239E+004 -6.179E+003  9.568E+002 -1.805E+003 -6.756E+003 -7.356E+003 -4.622E+003  2.102E+003 -3.155E+003 -1.262E+003 -9.806E+001  5.004E+001  2.836E+003  2.738E+003  2.428E+003  3.062E+003  3.077E+003 -7.896E+003 -4.607E+004 -5.030E+004 -3.483E+004 -1.966E+003 -1.875E+003 -2.598E+004 -3.371E+004 -2.468E+004 -9.780E+002  6.882E+002 -1.113E+004 -1.691E+004 -1.252E+004  7.497E+002 -3.388E+002 -3.466E+001  1.124E+003  2.240E+003  2.453E+003 -6.602E+003 -2.475E+004 -3.951E+004 -4.140E+004 -4.349E+004 -3.693E+004 -3.102E+004 -1.727E+004 -3.858E+003 -2.065E+003 -2.991E+004 -3.608E+004 -2.618E+004 -3.331E+003 -1.666E+003 -1.182E+004 -2.254E+004 -2.623E+004 -2.945E+004 -2.572E+004 -2.160E+004 -1.212E+004 -2.700E+003 -1.473E+002 -1.537E+004 -2.139E+004 -1.614E+004 -1.449E+003 -4.815E+001 -5.046E+003 -1.010E+004 -1.227E+004 -1.469E+004 -1.290E+004 -1.119E+004 -5.567E+003 -8.578E+001  3.320E+002 -4.604E+003 -6.215E+003 -4.082E+003  1.090E+003 -9.799E+002 -1.608E+002  4.055E+002  6.451E+002  1.487E+003  8.998E+002  2.038E+003  1.575E+003  2.826E+003 -5.637E+003 -3.331E+004 -3.668E+004 -2.572E+004 -4.503E+003 -1.388E+003 -1.921E+004 -2.510E+004 -1.899E+004 -3.275E+003 -1.427E+002 -8.373E+003 -1.261E+004 -1.103E+004 -1.899E+003 -1.511E+003 -1.204E+002 -5.641E+002 -3.349E+002  2.162E+002 -4.068E+003 -1.691E+004 -2.689E+004 -2.833E+004 -2.956E+004 -2.579E+004 -2.209E+004 -1.352E+004 -5.356E+003 -1.153E+003 -2.058E+004 -2.476E+004 -1.894E+004 -4.234E+003 -9.874E+002 -8.038E+003 -1.584E+004 -1.809E+004 -2.038E+004 -1.810E+004 -1.589E+004 -9.814E+003 -3.188E+003 -4.189E+002 -1.037E+004 -1.503E+004 -1.246E+004 -2.263E+003 -8.819E+002 -3.841E+003 -6.288E+003 -9.195E+003 -1.048E+004 -9.199E+003 -9.236E+003 -5.030E+003 -1.652E+003 -1.817E+003 -3.344E+003 -4.898E+003 -4.261E+003  1.137E+002 -3.307E+003 -1.957E+002 -1.509E+003 -1.005E+003 -2.630E+002  2.869E+002  5.438E+002  1.443E+003  1.232E+003 -2.714E+003 -1.954E+004 -2.215E+004 -1.636E+004 -4.977E+003 -1.100E+003 -1.137E+004 -1.515E+004 -1.146E+004 -4.479E+003  5.132E+002 -4.824E+003 -8.206E+003 -6.365E+003 -2.427E+003 -1.068E+003 -3.569E+002  2.543E+002 -1.801E+002 -2.069E+002 -7.865E+002 -7.729E+003 -1.202E+004 -1.276E+004 -1.357E+004 -1.214E+004 -1.113E+004 -7.874E+003 -4.414E+003 -4.760E+002 -9.119E+003 -1.127E+004 -8.829E+003 -3.654E+003 -1.401E+003 -3.756E+003 -6.875E+003 -8.415E+003 -9.201E+003 -8.564E+003 -6.811E+003 -4.817E+003 -2.872E+003  7.963E+002 -5.336E+003 -6.713E+003 -4.966E+003 -2.176E+003  2.313E+003 -1.832E+003 -4.127E+003 -3.474E+003 -4.834E+003 -4.381E+003 -3.410E+003 -2.098E+003 -1.224E+003 -3.173E+002 -1.705E+003 -2.571E+003 -1.760E+003 -3.789E+002 -2.379E+003 -8.510E+002  6.410E+002  8.690E+002 -2.906E+002 -3.863E+002  3.847E+001  6.400E+002  6.128E+002  8.018E+002 -1.919E+003 -2.911E+003 -2.298E+003 -1.977E+003 -5.217E+002 -1.244E+003 -1.579E+003 -1.469E+003 -2.006E+003  5.659E+002  1.886E+002 -5.590E+002 -1.448E+003  1.414E+002  5.220E+002  4.396E+002  9.811E+002  2.020E+003  1.759E+003  2.964E+003  4.220E+003  7.700E+003  7.405E+003  8.162E+003  6.817E+003  5.921E+003  2.293E+003 -2.179E+003  1.226E+003  5.758E+003  6.945E+003  5.166E+003 -9.293E+002  8.631E+001  2.434E+003  4.250E+003  5.246E+003  5.814E+003  5.515E+003  4.777E+003  2.493E+003  2.822E+002 -2.930E+002  3.556E+003  4.620E+003  3.958E+003  5.811E+002 -1.670E+002  1.019E+003  3.076E+003  2.684E+003  3.756E+003  4.417E+003  3.438E+003  2.257E+003  7.075E+002 -1.018E+003  1.449E+003  2.490E+003  2.610E+003  1.807E+003 -1.564E+003  8.287E+002 -1.535E+002  1.026E+003  1.377E+003  9.752E+002  2.018E+003  1.944E+003  2.705E+003  4.368E+003  1.609E+004  1.803E+004  1.212E+004 -9.431E+002  4.538E+001  9.230E+003  1.240E+004  9.233E+003 -1.045E+002  1.308E+003  4.733E+003  7.369E+003  6.311E+003  1.550E+003 -3.385E+002  1.645E+003  2.671E+003  3.468E+003  2.602E+003  6.106E+003  1.528E+004  2.569E+004  2.576E+004  2.667E+004  2.218E+004  1.853E+004  8.548E+003 -1.822E+003  1.939E+003  1.946E+004  2.235E+004  1.601E+004 -1.223E+003  3.276E+002  7.596E+003  1.459E+004  1.669E+004  1.863E+004  1.586E+004  1.358E+004  6.919E+003 -5.934E+002  5.018E+002  9.843E+003  1.408E+004  1.039E+004  1.979E+002  1.304E+003  3.402E+003  6.645E+003  9.400E+003  1.013E+004  8.855E+003  7.394E+003  4.803E+003  1.298E+003  1.331E+003  2.804E+003  6.024E+003  4.467E+003  1.565E+003  1.638E+003 -6.069E+001 -3.906E+002  5.716E+002  1.664E+003  1.935E+003  1.714E+003  2.808E+003  2.249E+003  7.785E+003  3.461E+004  3.682E+004  2.413E+004 -1.176E+003  9.017E+002  1.938E+004  2.512E+004  1.766E+004 -3.285E+002  1.498E+002  8.552E+003  1.269E+004  1.007E+004  3.996E+002 -1.869E+003  4.495E+002  7.584E+002  1.221E+003  2.891E+003  9.544E+003  2.686E+004  4.380E+004  4.414E+004  4.592E+004  3.772E+004  2.910E+004  1.380E+004 -2.389E+003  3.322E+003  3.255E+004  3.820E+004  2.506E+004 -2.169E+003  1.430E+003  1.267E+004  2.397E+004  2.788E+004  3.110E+004  2.644E+004  2.128E+004  9.833E+003 -1.847E+003 -1.006E+003  1.663E+004  2.287E+004  1.605E+004 -1.449E+003 -2.277E+003  4.121E+003  1.138E+004  1.271E+004  1.602E+004  1.418E+004  1.144E+004  5.312E+003 -1.012E+003 -2.417E+003  5.314E+003  7.791E+003  6.134E+003  6.064E+002 -1.478E+003  1.293E+003  1.953E+002  1.296E+002  1.113E+003  5.346E+002  1.196E+003  1.119E+003  2.242E+003  1.149E+004  5.368E+004  5.649E+004  3.561E+004 -4.332E+003  1.893E+003  2.971E+004  3.770E+004  2.530E+004 -3.252E+003  8.941E+000  1.383E+004  1.900E+004  1.299E+004 -1.501E+003 -9.129E+002 -9.864E+002 -6.703E+002 -2.389E+002  7.290E+002  1.394E+004  3.916E+004  6.416E+004  6.457E+004  6.726E+004  5.490E+004  4.333E+004  1.970E+004 -3.890E+003  4.791E+003  4.793E+004  5.544E+004  3.668E+004 -3.262E+003  2.453E+003  1.861E+004  3.526E+004  4.104E+004  4.499E+004  3.816E+004  3.063E+004  1.409E+004 -2.749E+003 -4.590E+002  2.408E+004  3.334E+004  2.276E+004 -2.066E+003 -2.198E+002  8.461E+003  1.598E+004  1.907E+004  2.404E+004  1.932E+004  1.543E+004  7.737E+003 -1.466E+003  1.687E+002  5.529E+003  1.059E+004  8.426E+003 -9.811E+002 -4.060E+002 -8.964E+002 -2.131E+003 -5.958E+002 -8.311E+002 -4.138E+002  8.382E+002 -1.881E+002  3.595E+001  1.646E+004  7.584E+004  8.048E+004  5.160E+004 -4.946E+003  2.122E+003  4.207E+004  5.399E+004  3.671E+004 -3.467E+003  7.327E+002  1.753E+004  2.766E+004  1.933E+004 -2.115E+003  1.289E+003  6.321E+002 -1.450E+002 -1.779E+003  9.113E+002  2.015E+004  5.461E+004  8.851E+004  9.024E+004  9.431E+004  7.635E+004  5.940E+004  2.942E+004 -3.812E+003  6.939E+003  6.660E+004  7.780E+004  5.067E+004 -3.055E+003  2.567E+003  2.614E+004  4.982E+004  5.714E+004  6.300E+004  5.356E+004  4.261E+004  2.068E+004 -2.467E+003 -1.766E+002  3.366E+004  4.665E+004  3.227E+004 -1.891E+003 -1.067E+003  9.200E+003  2.208E+004  2.766E+004  3.307E+004  2.792E+004  2.280E+004  1.074E+004 -1.035E+003 -1.687E+003  1.061E+004  1.479E+004  1.080E+004  4.299E+002 -9.999E+002 -1.040E+003  8.293E+002 -1.072E+003 -6.911E+002  7.215E+001 -1.087E+003  1.155E+003  1.659E+003  2.153E+004  1.015E+005  1.076E+005  6.999E+004 -1.980E+003  3.200E+003  5.689E+004  7.284E+004  5.014E+004 -1.761E+003  6.310E+002  2.591E+004  3.685E+004  2.729E+004 -1.551E+003  4.274E+002  1.136E+002  1.818E+002 -5.532E+002 -3.146E+002  2.475E+004  7.047E+004  1.142E+005  1.169E+005  1.210E+005  1.009E+005  7.699E+004  3.757E+004 -1.989E+003  8.428E+003  8.560E+004  1.006E+005  6.673E+004 -2.415E+003  3.704E+003  3.333E+004  6.359E+004  7.382E+004  8.238E+004  7.031E+004  5.734E+004  2.809E+004 -2.753E+003 -1.158E+003  4.379E+004  6.010E+004  4.316E+004 -2.273E+003 -9.183E+002  1.454E+004  2.930E+004  3.411E+004  4.170E+004  3.679E+004  3.066E+004  1.449E+004 -1.877E+003 -3.392E+001  1.319E+004  2.066E+004  1.548E+004 -5.598E+002  2.629E+003  1.672E+003  3.142E+002  1.388E+003  1.892E+003 -2.551E+002  1.465E+003  3.075E+002  6.591E+002  2.490E+004  1.245E+005  1.313E+005  8.646E+004 -1.309E+003  4.769E+003  6.988E+004  8.918E+004  6.253E+004 -1.059E+003  6.512E+002  3.076E+004  4.618E+004  3.416E+004 -1.876E+002  1.646E+003  2.518E+002 -2.738E+002  9.330E+002  8.052E+001  2.954E+004  8.586E+004  1.375E+005  1.395E+005  1.458E+005  1.194E+005  9.342E+004  4.806E+004 -1.420E+003  9.484E+003  1.033E+005  1.206E+005  8.067E+004 -6.925E+002  3.892E+003  3.987E+004  7.734E+004  8.886E+004  9.746E+004  8.430E+004  6.895E+004  3.443E+004  1.342E+002 -1.152E+003  5.213E+004  7.153E+004  5.253E+004  1.114E+002 -1.056E+002  1.653E+004  3.361E+004  4.149E+004  5.074E+004  4.294E+004  3.739E+004  2.008E+004 -2.378E+002 -1.974E+003  1.569E+004  2.373E+004  1.768E+004  2.805E+002 -1.849E+003 -1.749E+003  2.218E+002  6.803E+002  5.411E+001  6.996E+002 -7.556E+002  4.913E+002  7.383E+002  3.153E+004  1.395E+005  1.438E+005  9.266E+004 -2.389E+003  6.523E+003  7.855E+004  9.814E+004  6.674E+004 -1.956E+003  4.371E+003  3.406E+004  4.999E+004  3.658E+004 -8.685E+002  1.108E+002  2.292E+002  1.423E+003  8.730E+002  1.215E+003  3.031E+004  8.720E+004  1.406E+005  1.393E+005  1.401E+005  1.146E+005  9.296E+004  4.448E+004 -9.122E+002  8.861E+003  1.050E+005  1.173E+005  7.929E+004 -9.517E+002  3.080E+003  4.025E+004  7.818E+004  8.770E+004  9.642E+004  8.022E+004  6.589E+004  3.355E+004 -8.418E+002  2.129E+003  5.230E+004  6.994E+004  5.129E+004 -3.744E+002  4.526E+003  1.670E+004  3.311E+004  4.314E+004  4.681E+004  4.217E+004  3.765E+004  1.841E+004  4.106E+002  2.257E+003  1.576E+004  2.301E+004  1.870E+004 -1.974E+002 -1.070E+003 -6.754E+002  1.399E+002 -1.065E+001  1.101E+003  1.074E+003  7.794E+001 -3.731E+001 -3.604E+002  2.243E+004  9.506E+004  9.407E+004  5.428E+004  6.767E+002  4.391E+003  5.671E+004  6.555E+004  4.309E+004  1.042E+003  2.271E+003  2.703E+004  3.462E+004  2.485E+004  2.749E+003 -5.146E+003  1.728E+003  7.205E+002 -8.190E+001  4.171E+002  3.323E+002  1.810E+004  3.490E+004  2.813E+004  2.606E+004  1.655E+004  1.663E+004  8.495E+003  6.363E+003 -1.051E+003  2.724E+004  2.430E+004  1.547E+004  2.848E+003  2.387E+003  1.215E+004  2.338E+004  2.103E+004  2.131E+004  1.789E+004  1.372E+004  3.613E+003  7.324E+002  2.652E+003  1.892E+004  1.576E+004  1.225E+004 -1.947E+001  5.708E+003  1.263E+004  1.727E+004  1.325E+004  1.088E+004  1.203E+004  1.140E+004  9.025E+002  1.651E+002  2.058E+003  9.023E+003  5.359E+003  5.836E+003  5.439E+002  4.969E+003  6.944E+003  4.915E+003  4.550E+003  2.542E+003 -9.570E+002 -4.941E+002 -9.519E+001  1.906E+002
        </DataArray>
        <DataArray type="Float32" Name="vonmises" NumberOfComponents="1" format="ascii">
  3.340E+006  2.879E+006  2.632E+006  2.680E+006  2.680E+006  2.760E+006  2.845E+006  2.871E+006  2.906E+006  3.025E+006  2.280E+006  2.207E+006  2.290E+006  2.322E+006  2.630E+006  2.158E+006  1.877E+006  1.826E+006  1.741E+006  1.758E+006  1.784E+006  1.787E+006  1.801E+006  2.169E+006  1.496E+006  1.351E+006  1.373E+006  1.383E+006  1.697E+006  1.342E+006  1.103E+006  1.013E+006  9.241E+005  9.096E+005  9.089E+005  9.040E+005  9.071E+005  1.153E+006  6.325E+005  4.715E+005  4.931E+005  5.089E+005  9.148E+005  6.258E+005  3.760E+005  1.975E+005  6.500E+004  5.152E+004  1.174E+005  1.654E+005  1.723E+005  3.607E+006  3.632E+006  3.555E+006  3.507E+006  3.480E+006  2.797E+006  2.814E+006  2.767E+006  2.735E+006  2.710E+006  1.655E+006  1.650E+006  1.643E+006  1.639E+006  1.622E+006  2.587E+005  2.659E+005  4.881E+005  6.088E+005  6.487E+005  3.301E+006  3.424E+006  3.562E+006  3.528E+006  3.483E+006  3.410E+006  3.331E+006  3.286E+006  3.240E+006  2.891E+006  3.157E+006  3.121E+006  2.998E+006  2.918E+006  2.528E+006  2.652E+006  2.795E+006  2.804E+006  2.805E+006  2.765E+006  2.717E+006  2.688E+006  2.652E+006  2.021E+006  2.234E+006  2.262E+006  2.203E+006  2.152E+006  1.553E+006  1.624E+006  1.710E+006  1.737E+006  1.757E+006  1.749E+006  1.734E+006  1.720E+006  1.699E+006  8.753E+005  9.473E+005  9.968E+005  1.010E+006  9.978E+005  4.337E+005  4.437E+005  4.580E+005  5.200E+005  5.695E+005  6.226E+005  6.636E+005  6.904E+005  7.022E+005  3.055E+006  3.023E+006  3.024E+006  2.977E+006  2.924E+006  2.340E+006  2.306E+006  2.306E+006  2.272E+006  2.228E+006  1.437E+006  1.404E+006  1.401E+006  1.383E+006  1.350E+006  4.940E+005  4.410E+005  4.278E+005  4.403E+005  4.497E+005  2.597E+006  2.633E+006  2.641E+006  2.620E+006  2.589E+006  2.565E+006  2.543E+006  2.516E+006  2.502E+006  2.327E+006  2.368E+006  2.329E+006  2.291E+006  2.255E+006  2.072E+006  2.090E+006  2.096E+006  2.082E+006  2.062E+006  2.045E+006  2.029E+006  2.009E+006  1.996E+006  1.704E+006  1.704E+006  1.668E+006  1.638E+006  1.606E+006  1.371E+006  1.348E+006  1.333E+006  1.308E+006  1.287E+006  1.268E+006  1.252E+006  1.235E+006  1.221E+006  9.511E+005  8.634E+005  8.035E+005  7.648E+005  7.367E+005  7.569E+005  6.771E+005  6.236E+005  5.721E+005  5.469E+005  5.188E+005  5.073E+005  4.984E+005  4.960E+005  2.195E+006  2.186E+006  2.174E+006  2.138E+006  2.101E+006  1.730E+006  1.703E+006  1.688E+006  1.656E+006  1.622E+006  1.160E+006  1.095E+006  1.057E+006  1.021E+006  9.882E+005  6.664E+005  5.372E+005  4.401E+005  3.870E+005  3.694E+005  1.781E+006  1.777E+006  1.785E+006  1.770E+006  1.758E+006  1.743E+006  1.728E+006  1.710E+006  1.693E+006  1.604E+006  1.596E+006  1.571E+006  1.541E+006  1.508E+006  1.452E+006  1.431E+006  1.425E+006  1.408E+006  1.397E+006  1.382E+006  1.368E+006  1.351E+006  1.335E+006  1.241E+006  1.189E+006  1.148E+006  1.114E+006  1.080E+006  1.080E+006  1.032E+006  9.959E+005  9.596E+005  9.333E+005  9.087E+005  8.898E+005  8.706E+005  8.553E+005  8.714E+005  7.488E+005  6.596E+005  6.010E+005  5.669E+005  8.011E+005  7.236E+005  6.550E+005  5.946E+005  5.479E+005  5.091E+005  4.833E+005  4.663E+005  4.610E+005  1.349E+006  1.348E+006  1.334E+006  1.303E+006  1.269E+006  1.103E+006  1.069E+006  1.048E+006  1.019E+006  9.867E+005  8.615E+005  7.683E+005  7.084E+005  6.652E+005  6.323E+005  6.977E+005  5.541E+005  4.421E+005  3.762E+005  3.524E+005  9.231E+005  9.242E+005  9.283E+005  9.216E+005  9.145E+005  8.978E+005  8.821E+005  8.607E+005  8.444E+005  8.575E+005  8.413E+005  8.254E+005  7.948E+005  7.592E+005  8.363E+005  8.009E+005  7.820E+005  7.659E+005  7.536E+005  7.359E+005  7.206E+005  7.011E+005  6.865E+005  8.043E+005  7.180E+005  6.674E+005  6.273E+005  5.933E+005  8.185E+005  7.500E+005  6.992E+005  6.519E+005  6.187E+005  5.873E+005  5.647E+005  5.443E+005  5.308E+005  7.930E+005  6.544E+005  5.525E+005  4.885E+005  4.571E+005  8.065E+005  7.242E+005  6.574E+005  5.910E+005  5.433E+005  5.016E+005  4.758E+005  4.573E+005  4.512E+005  4.975E+005  5.181E+005  5.098E+005  4.688E+005  4.228E+005  5.103E+005  4.494E+005  4.236E+005  3.859E+005  3.460E+005  6.268E+005  4.989E+005  4.130E+005  3.559E+005  3.225E+005  6.987E+005  5.528E+005  4.379E+005  3.673E+005  3.437E+005  1.072E+005  1.403E+005  2.013E+005  2.044E+005  2.116E+005  1.794E+005  1.481E+005  8.838E+004  4.256E+004  2.486E+005  2.269E+005  2.242E+005  1.778E+005  1.254E+005  4.141E+005  3.488E+005  3.188E+005  2.955E+005  2.833E+005  2.604E+005  2.424E+005  2.202E+005  2.103E+005  5.445E+005  4.246E+005  3.580E+005  3.132E+005  2.900E+005  6.779E+005  6.000E+005  5.402E+005  4.855E+005  4.475E+005  4.137E+005  3.924E+005  3.749E+005  3.693E+005  7.436E+005  6.008E+005  4.960E+005  4.342E+005  4.115E+005  7.967E+005  7.169E+005  6.499E+005  5.842E+005  5.357E+005  4.944E+005  4.679E+005  4.502E+005  4.443E+005  3.443E+005  4.004E+005  4.216E+005  4.145E+005  4.155E+005  3.997E+005  3.466E+005  3.445E+005  3.386E+005  3.437E+005  5.733E+005  4.458E+005  3.679E+005  3.291E+005  3.228E+005  6.870E+005  5.428E+005  4.310E+005  3.625E+005  3.392E+005  7.623E+005  7.745E+005  7.942E+005  8.026E+005  8.121E+005  8.138E+005  8.172E+005  8.205E+005  8.294E+005  7.047E+005  7.112E+005  7.260E+005  7.321E+005  7.458E+005  6.978E+005  6.689E+005  6.605E+005  6.577E+005  6.600E+005  6.598E+005  6.620E+005  6.663E+005  6.752E+005  6.886E+005  6.136E+005  5.852E+005  5.759E+005  5.855E+005  7.297E+005  6.645E+005  6.180E+005  5.776E+005  5.532E+005  5.332E+005  5.236E+005  5.203E+005  5.254E+005  7.360E+005  6.027E+005  5.085E+005  4.581E+005  4.472E+005  7.799E+005  7.014E+005  6.364E+005  5.721E+005  5.249E+005  4.830E+005  4.569E+005  4.388E+005  4.335E+005  1.167E+006  1.193E+006  1.209E+006  1.219E+006  1.234E+006  9.375E+005  9.266E+005  9.357E+005  9.457E+005  9.626E+005  7.373E+005  6.551E+005  6.168E+005  6.072E+005  6.189E+005  6.696E+005  5.283E+005  4.189E+005  3.545E+005  3.321E+005  1.574E+006  1.583E+006  1.596E+006  1.603E+006  1.611E+006  1.616E+006  1.622E+006  1.628E+006  1.637E+006  1.405E+006  1.415E+006  1.429E+006  1.440E+006  1.457E+006  1.262E+006  1.251E+006  1.250E+006  1.253E+006  1.257E+006  1.262E+006  1.266E+006  1.274E+006  1.283E+006  1.071E+006  1.034E+006  1.026E+006  1.030E+006  1.045E+006  9.327E+005  8.891E+005  8.606E+005  8.373E+005  8.260E+005  8.171E+005  8.171E+005  8.180E+005  8.271E+005  7.664E+005  6.533E+005  5.799E+005  5.459E+005  5.448E+005  7.522E+005  6.768E+005  6.142E+005  5.524E+005  5.069E+005  4.672E+005  4.420E+005  4.237E+005  4.174E+005  1.964E+006  1.984E+006  1.998E+006  2.008E+006  2.024E+006  1.532E+006  1.531E+006  1.541E+006  1.553E+006  1.569E+006  1.004E+006  9.559E+005  9.378E+005  9.383E+005  9.524E+005  6.409E+005  5.050E+005  3.997E+005  3.368E+005  3.149E+005  2.353E+006  2.360E+006  2.370E+006  2.376E+006  2.383E+006  2.388E+006  2.394E+006  2.401E+006  2.409E+006  2.089E+006  2.100E+006  2.112E+006  2.123E+006  2.140E+006  1.842E+006  1.838E+006  1.839E+006  1.843E+006  1.847E+006  1.853E+006  1.858E+006  1.866E+006  1.874E+006  1.502E+006  1.483E+006  1.482E+006  1.489E+006  1.505E+006  1.201E+006  1.173E+006  1.156E+006  1.142E+006  1.137E+006  1.133E+006  1.136E+006  1.140E+006  1.149E+006  8.302E+005  7.397E+005  6.850E+005  6.631E+005  6.690E+005  7.151E+005  6.434E+005  5.839E+005  5.255E+005  4.824E+005  4.445E+005  4.203E+005  4.043E+005  3.992E+005  2.724E+006  2.740E+006  2.752E+006  2.762E+006  2.776E+006  2.111E+006  2.113E+006  2.124E+006  2.135E+006  2.151E+006  1.303E+006  1.273E+006  1.265E+006  1.268E+006  1.283E+006  6.054E+005  4.783E+005  3.790E+005  3.189E+005  2.981E+005  3.092E+006  3.099E+006  3.107E+006  3.112E+006  3.118E+006  3.122E+006  3.127E+006  3.134E+006  3.141E+006  2.742E+006  2.752E+006  2.763E+006  2.774E+006  2.788E+006  2.403E+006  2.402E+006  2.405E+006  2.409E+006  2.413E+006  2.418E+006  2.423E+006  2.430E+006  2.437E+006  1.932E+006  1.922E+006  1.924E+006  1.933E+006  1.946E+006  1.490E+006  1.471E+006  1.461E+006  1.452E+006  1.451E+006  1.449E+006  1.454E+006  1.457E+006  1.465E+006  9.160E+005  8.474E+005  8.085E+005  7.956E+005  8.025E+005  6.706E+005  6.036E+005  5.482E+005  4.933E+005  4.533E+005  4.175E+005  3.948E+005  3.805E+005  3.765E+005  3.438E+006  3.453E+006  3.463E+006  3.472E+006  3.486E+006  2.659E+006  2.664E+006  2.673E+006  2.684E+006  2.698E+006  1.601E+006  1.582E+006  1.579E+006  1.584E+006  1.598E+006  5.648E+005  4.463E+005  3.538E+005  2.971E+005  2.794E+005  3.782E+006  3.788E+006  3.794E+006  3.799E+006  3.804E+006  3.807E+006  3.812E+006  3.817E+006  3.825E+006  3.352E+006  3.362E+006  3.371E+006  3.380E+006  3.393E+006  2.931E+006  2.932E+006  2.934E+006  2.939E+006  2.942E+006  2.947E+006  2.951E+006  2.957E+006  2.963E+006  2.341E+006  2.337E+006  2.341E+006  2.348E+006  2.361E+006  1.773E+006  1.761E+006  1.756E+006  1.750E+006  1.750E+006  1.750E+006  1.754E+006  1.757E+006  1.765E+006  1.013E+006  9.624E+005  9.346E+005  9.276E+005  9.341E+005  6.214E+005  5.584E+005  5.064E+005  4.555E+005  4.182E+005  3.864E+005  3.661E+005  3.510E+005  3.452E+005  4.100E+006  4.113E+006  4.121E+006  4.128E+006  4.139E+006  3.168E+006  3.174E+006  3.182E+006  3.191E+006  3.202E+006  1.884E+006  1.873E+006  1.872E+006  1.878E+006  1.890E+006  5.150E+005  4.070E+005  3.236E+005  2.739E+005  2.584E+005  4.415E+006  4.421E+006  4.426E+006  4.430E+006  4.433E+006  4.436E+006  4.439E+006  4.443E+006  4.448E+006  3.913E+006  3.922E+006  3.929E+006  3.936E+006  3.946E+006  3.417E+006  3.419E+006  3.421E+006  3.425E+006  3.428E+006  3.432E+006  3.435E+006  3.440E+006  3.445E+006  2.720E+006  2.720E+006  2.724E+006  2.731E+006  2.741E+006  2.040E+006  2.032E+006  2.029E+006  2.026E+006  2.028E+006  2.028E+006  2.032E+006  2.034E+006  2.042E+006  1.110E+006  1.075E+006  1.056E+006  1.054E+006  1.061E+006  5.621E+005  5.049E+005  4.571E+005  4.109E+005  3.773E+005  3.477E+005  3.306E+005  3.159E+005  3.111E+005  4.700E+006  4.710E+006  4.716E+006  4.720E+006  4.727E+006  3.630E+006  3.636E+006  3.642E+006  3.648E+006  3.656E+006  2.146E+006  2.138E+006  2.138E+006  2.144E+006  2.153E+006  4.597E+005  3.625E+005  2.867E+005  2.440E+005  2.290E+005  4.981E+006  4.985E+006  4.990E+006  4.992E+006  4.994E+006  4.995E+006  4.997E+006  4.998E+006  5.002E+006  4.413E+006  4.421E+006  4.426E+006  4.430E+006  4.437E+006  3.851E+006  3.854E+006  3.856E+006  3.859E+006  3.860E+006  3.864E+006  3.865E+006  3.869E+006  3.871E+006  3.061E+006  3.062E+006  3.066E+006  3.070E+006  3.078E+006  2.281E+006  2.277E+006  2.277E+006  2.274E+006  2.277E+006  2.275E+006  2.281E+006  2.281E+006  2.288E+006  1.204E+006  1.181E+006  1.169E+006  1.168E+006  1.173E+006  4.853E+005  4.361E+005  3.966E+005  3.575E+005  3.293E+005  3.051E+005  2.898E+005  2.794E+005  2.757E+005  5.221E+006  5.230E+006  5.234E+006  5.237E+006  5.239E+006  4.031E+006  4.037E+006  4.042E+006  4.046E+006  4.047E+006  2.372E+006  2.369E+006  2.370E+006  2.375E+006  2.378E+006  3.861E+005  3.056E+005  2.416E+005  2.037E+005  1.928E+005  5.454E+006  5.459E+006  5.463E+006  5.464E+006  5.465E+006  5.465E+006  5.466E+006  5.466E+006  5.465E+006  4.832E+006  4.840E+006  4.843E+006  4.845E+006  4.849E+006  4.214E+006  4.218E+006  4.220E+006  4.223E+006  4.223E+006  4.225E+006  4.226E+006  4.230E+006  4.232E+006  3.345E+006  3.349E+006  3.352E+006  3.355E+006  3.364E+006  2.486E+006  2.483E+006  2.485E+006  2.482E+006  2.484E+006  2.484E+006  2.487E+006  2.489E+006  2.497E+006  1.280E+006  1.267E+006  1.259E+006  1.258E+006  1.266E+006  3.950E+005  3.538E+005  3.208E+005  2.882E+005  2.640E+005  2.446E+005  2.311E+005  2.180E+005  2.117E+005  5.641E+006  5.649E+006  5.651E+006  5.651E+006  5.654E+006  4.354E+006  4.361E+006  4.365E+006  4.367E+006  4.371E+006  2.554E+006  2.556E+006  2.558E+006  2.562E+006  2.566E+006  3.021E+005  2.392E+005  1.918E+005  1.580E+005  1.485E+005  5.820E+006  5.824E+006  5.828E+006  5.829E+006  5.830E+006  5.830E+006  5.832E+006  5.827E+006  5.827E+006  5.157E+006  5.164E+006  5.167E+006  5.170E+006  5.168E+006  4.496E+006  4.500E+006  4.502E+006  4.506E+006  4.506E+006  4.508E+006  4.508E+006  4.509E+006  4.509E+006  3.566E+006  3.572E+006  3.576E+006  3.579E+006  3.582E+006  2.641E+006  2.643E+006  2.647E+006  2.646E+006  2.651E+006  2.647E+006  2.650E+006  2.650E+006  2.657E+006  1.339E+006  1.337E+006  1.337E+006  1.336E+006  1.342E+006  2.968E+005  2.655E+005  2.403E+005  2.166E+005  1.996E+005  1.833E+005  1.741E+005  1.670E+005  1.631E+005  5.954E+006  5.962E+006  5.963E+006  5.964E+006  5.967E+006  4.595E+006  4.602E+006  4.606E+006  4.607E+006  4.611E+006  2.690E+006  2.694E+006  2.697E+006  2.700E+006  2.704E+006  2.186E+005  1.711E+005  1.365E+005  1.161E+005  1.091E+005  6.081E+006  6.085E+006  6.089E+006  6.089E+006  6.091E+006  6.090E+006  6.091E+006  6.088E+006  6.090E+006  5.387E+006  5.395E+006  5.397E+006  5.399E+006  5.401E+006  4.696E+006  4.701E+006  4.703E+006  4.706E+006  4.706E+006  4.708E+006  4.708E+006  4.710E+006  4.711E+006  3.723E+006  3.730E+006  3.734E+006  3.736E+006  3.742E+006  2.753E+006  2.755E+006  2.760E+006  2.760E+006  2.764E+006  2.762E+006  2.765E+006  2.764E+006  2.772E+006  1.383E+006  1.386E+006  1.387E+006  1.388E+006  1.393E+006  1.962E+005  1.751E+005  1.591E+005  1.426E+005  1.303E+005  1.221E+005  1.167E+005  1.092E+005  1.043E+005  6.158E+006  6.166E+006  6.167E+006  6.167E+006  6.168E+006  4.750E+006  4.759E+006  4.763E+006  4.764E+006  4.765E+006  2.778E+006  2.784E+006  2.787E+006  2.792E+006  2.794E+006  1.257E+005  9.597E+004  7.653E+004  6.238E+004  6.423E+004  6.224E+006  6.229E+006  6.232E+006  6.233E+006  6.234E+006  6.233E+006  6.232E+006  6.230E+006  6.230E+006  5.513E+006  5.522E+006  5.525E+006  5.524E+006  5.526E+006  4.804E+006  4.810E+006  4.813E+006  4.816E+006  4.817E+006  4.818E+006  4.817E+006  4.821E+006  4.821E+006  3.807E+006  3.817E+006  3.821E+006  3.823E+006  3.831E+006  2.814E+006  2.817E+006  2.823E+006  2.824E+006  2.829E+006  2.826E+006  2.828E+006  2.829E+006  2.841E+006  1.404E+006  1.411E+006  1.416E+006  1.418E+006  1.428E+006  8.435E+004  6.777E+004  6.206E+004  5.396E+004  4.767E+004  4.586E+004  4.433E+004  4.456E+004  3.784E+004  6.236E+006  6.245E+006  6.246E+006  6.245E+006  6.242E+006  4.810E+006  4.820E+006  4.823E+006  4.824E+006  4.824E+006  2.810E+006  2.818E+006  2.823E+006  2.827E+006  2.828E+006  3.483E+004  1.525E+004  1.545E+004  1.238E+004  1.589E+004  6.240E+006  6.245E+006  6.249E+006  6.249E+006  6.250E+006  6.247E+006  6.246E+006  6.244E+006  6.248E+006  5.527E+006  5.536E+006  5.539E+006  5.537E+006  5.538E+006  4.816E+006  4.823E+006  4.825E+006  4.829E+006  4.829E+006  4.830E+006  4.829E+006  4.830E+006  4.828E+006  3.818E+006  3.826E+006  3.833E+006  3.832E+006  3.836E+006  2.823E+006  2.825E+006  2.832E+006  2.833E+006  2.840E+006  2.834E+006  2.835E+006  2.834E+006  2.843E+006  1.410E+006  1.417E+006  1.422E+006  1.422E+006  1.426E+006  6.544E+004  4.708E+004  4.342E+004  4.159E+004  3.726E+004  3.659E+004  3.507E+004  3.284E+004  3.139E+004  6.182E+006  6.190E+006  6.191E+006  6.189E+006  6.187E+006  4.768E+006  4.777E+006  4.780E+006  4.780E+006  4.780E+006  2.788E+006  2.796E+006  2.798E+006  2.802E+006  2.802E+006  1.074E+005  8.277E+004  6.708E+004  5.696E+004  5.349E+004  6.113E+006  6.117E+006  6.120E+006  6.120E+006  6.120E+006  6.118E+006  6.117E+006  6.114E+006  6.112E+006  5.415E+006  5.423E+006  5.424E+006  5.422E+006  5.419E+006  4.719E+006  4.725E+006  4.727E+006  4.730E+006  4.729E+006  4.730E+006  4.728E+006  4.728E+006  4.727E+006  3.743E+006  3.750E+006  3.754E+006  3.754E+006  3.757E+006  2.770E+006  2.771E+006  2.777E+006  2.777E+006  2.781E+006  2.778E+006  2.781E+006  2.778E+006  2.787E+006  1.392E+006  1.396E+006  1.399E+006  1.399E+006  1.404E+006  1.963E+005  1.749E+005  1.590E+005  1.435E+005  1.322E+005  1.255E+005  1.217E+005  1.184E+005  1.164E+005  5.977E+006  5.984E+006  5.983E+006  5.979E+006  5.977E+006  4.612E+006  4.619E+006  4.620E+006  4.617E+006  4.618E+006  2.702E+006  2.706E+006  2.707E+006  2.708E+006  2.708E+006  2.320E+005  1.812E+005  1.451E+005  1.224E+005  1.147E+005  5.828E+006  5.833E+006  5.836E+006  5.835E+006  5.835E+006  5.832E+006  5.831E+006  5.826E+006  5.826E+006  5.163E+006  5.171E+006  5.171E+006  5.168E+006  5.166E+006  4.503E+006  4.507E+006  4.508E+006  4.511E+006  4.509E+006  4.510E+006  4.507E+006  4.507E+006  4.505E+006  3.576E+006  3.580E+006  3.582E+006  3.580E+006  3.583E+006  2.659E+006  2.657E+006  2.659E+006  2.656E+006  2.660E+006  2.654E+006  2.656E+006  2.653E+006  2.662E+006  1.360E+006  1.353E+006  1.348E+006  1.344E+006  1.348E+006  3.461E+005  3.102E+005  2.836E+005  2.570E+005  2.361E+005  2.193E+005  2.069E+005  2.010E+005  1.980E+005  5.608E+006  5.616E+006  5.616E+006  5.609E+006  5.607E+006  4.327E+006  4.334E+006  4.335E+006  4.331E+006  4.329E+006  2.547E+006  2.545E+006  2.543E+006  2.544E+006  2.540E+006  3.640E+005  2.868E+005  2.266E+005  1.944E+005  1.851E+005  5.376E+006  5.381E+006  5.385E+006  5.384E+006  5.383E+006  5.379E+006  5.379E+006  5.371E+006  5.371E+006  4.762E+006  4.770E+006  4.770E+006  4.767E+006  4.763E+006  4.154E+006  4.159E+006  4.159E+006  4.162E+006  4.160E+006  4.161E+006  4.156E+006  4.158E+006  4.155E+006  3.305E+006  3.307E+006  3.308E+006  3.304E+006  3.308E+006  2.468E+006  2.463E+006  2.465E+006  2.462E+006  2.465E+006  2.456E+006  2.457E+006  2.453E+006  2.465E+006  1.303E+006  1.282E+006  1.269E+006  1.258E+006  1.262E+006  5.046E+005  4.555E+005  4.163E+005  3.742E+005  3.429E+005  3.184E+005  3.024E+005  2.928E+005  2.910E+005  5.064E+006  5.074E+006  5.072E+006  5.065E+006  5.060E+006  3.907E+006  3.914E+006  3.915E+006  3.910E+006  3.906E+006  2.317E+006  2.309E+006  2.302E+006  2.301E+006  2.297E+006  5.094E+005  4.026E+005  3.223E+005  2.739E+005  2.593E+005  4.740E+006  4.746E+006  4.751E+006  4.749E+006  4.747E+006  4.743E+006  4.738E+006  4.733E+006  4.728E+006  4.200E+006  4.208E+006  4.208E+006  4.199E+006  4.194E+006  3.670E+006  3.672E+006  3.672E+006  3.674E+006  3.672E+006  3.669E+006  3.665E+006  3.664E+006  3.661E+006  2.932E+006  2.930E+006  2.926E+006  2.918E+006  2.918E+006  2.220E+006  2.209E+006  2.205E+006  2.193E+006  2.191E+006  2.181E+006  2.180E+006  2.173E+006  2.181E+006  1.246E+006  1.197E+006  1.164E+006  1.147E+006  1.143E+006  6.840E+005  6.165E+005  5.615E+005  5.063E+005  4.649E+005  4.335E+005  4.128E+005  3.988E+005  3.939E+005  4.328E+006  4.340E+006  4.339E+006  4.329E+006  4.323E+006  3.344E+006  3.348E+006  3.347E+006  3.341E+006  3.336E+006  2.021E+006  1.995E+006  1.982E+006  1.976E+006  1.969E+006  6.726E+005  5.304E+005  4.233E+005  3.597E+005  3.347E+005  3.904E+006  3.910E+006  3.916E+006  3.916E+006  3.916E+006  3.910E+006  3.907E+006  3.897E+006  3.897E+006  3.461E+006  3.469E+006  3.469E+006  3.462E+006  3.457E+006  3.038E+006  3.035E+006  3.032E+006  3.034E+006  3.031E+006  3.029E+006  3.021E+006  3.021E+006  3.020E+006  2.454E+006  2.437E+006  2.428E+006  2.418E+006  2.418E+006  1.912E+006  1.885E+006  1.874E+006  1.853E+006  1.848E+006  1.831E+006  1.828E+006  1.820E+006  1.831E+006  1.200E+006  1.111E+006  1.050E+006  1.016E+006  1.012E+006  8.788E+005  7.922E+005  7.226E+005  6.524E+005  5.988E+005  5.539E+005  5.234E+005  5.111E+005  5.089E+005  3.382E+006  3.398E+006  3.398E+006  3.391E+006  3.379E+006  2.626E+006  2.623E+006  2.623E+006  2.616E+006  2.608E+006  1.663E+006  1.609E+006  1.582E+006  1.570E+006  1.558E+006  8.388E+005  6.654E+005  5.364E+005  4.563E+005  4.294E+005  2.855E+006  2.862E+006  2.870E+006  2.871E+006  2.873E+006  2.866E+006  2.863E+006  2.857E+006  2.857E+006  2.540E+006  2.545E+006  2.546E+006  2.536E+006  2.534E+006  2.256E+006  2.245E+006  2.238E+006  2.235E+006  2.230E+006  2.227E+006  2.220E+006  2.220E+006  2.217E+006  1.881E+006  1.837E+006  1.813E+006  1.798E+006  1.798E+006  1.576E+006  1.521E+006  1.489E+006  1.451E+006  1.432E+006  1.410E+006  1.407E+006  1.395E+006  1.403E+006  1.191E+006  1.045E+006  9.419E+005  8.877E+005  8.765E+005  1.080E+006  9.737E+005  8.864E+005  8.020E+005  7.415E+005  6.850E+005  6.488E+005  6.329E+005  6.319E+005  2.219E+006  2.237E+006  2.240E+006  2.240E+006  2.229E+006  1.763E+006  1.740E+006  1.737E+006  1.734E+006  1.727E+006  1.283E+006  1.179E+006  1.122E+006  1.100E+006  1.087E+006  9.921E+005  7.967E+005  6.531E+005  5.748E+005  5.436E+005  1.581E+006  1.583E+006  1.595E+006  1.599E+006  1.607E+006  1.608E+006  1.611E+006  1.619E+006  1.625E+006  1.439E+006  1.424E+006  1.428E+006  1.431E+006  1.438E+006  1.360E+006  1.315E+006  1.295E+006  1.286E+006  1.279E+006  1.277E+006  1.273E+006  1.274E+006  1.271E+006  1.268E+006  1.163E+006  1.112E+006  1.089E+006  1.085E+006  1.269E+006  1.178E+006  1.115E+006  1.053E+006  1.018E+006  9.844E+005  9.681E+005  9.549E+005  9.576E+005  1.212E+006  1.025E+006  8.967E+005  8.233E+005  8.002E+005  1.249E+006  1.133E+006  1.041E+006  9.527E+005  8.892E+005  8.420E+005  8.150E+005  7.868E+005  7.708E+005  8.132E+005  8.373E+005  8.771E+005  9.119E+005  9.290E+005  7.492E+005  7.035E+005  7.101E+005  7.270E+005  7.454E+005  9.206E+005  7.837E+005  7.196E+005  7.038E+005  7.119E+005  1.094E+006  9.158E+005  8.141E+005  7.697E+005  7.785E+005  2.146E+005  2.184E+005  2.432E+005  2.531E+005  2.875E+005  3.411E+005  4.060E+005  4.258E+005  4.359E+005  3.756E+005  3.720E+005  3.805E+005  4.431E+005  4.563E+005  5.970E+005  5.789E+005  5.608E+005  5.431E+005  5.457E+005  5.589E+005  5.807E+005  5.760E+005  5.669E+005  7.823E+005  7.248E+005  6.952E+005  7.079E+005  6.791E+005  9.648E+005  9.117E+005  8.831E+005  8.489E+005  8.432E+005  8.347E+005  8.480E+005  8.183E+005  7.979E+005  1.040E+006  9.060E+005  8.695E+005  8.703E+005  8.299E+005  1.104E+006  9.884E+005  9.334E+005  9.053E+005  9.098E+005  8.928E+005  8.984E+005  8.723E+005  8.578E+005
        </DataArray>
        <DataArray type="Float32" Name="displacement" NumberOfComponents="3" format="ascii">
  2.383E-015  1.835E-015  3.411E-015  1.500E-015  1.698E-015  2.670E-015  1.709E-015  1.231E-015  2.339E-015  1.625E-015  1.582E-015  2.678E-015  1.736E-015  1.111E-015  2.183E-015  1.732E-015  1.453E-015  2.617E-015  1.717E-015  9.977E-016  2.008E-015  1.808E-015  1.320E-015  2.497E-015  1.200E-015  6.700E-016  1.361E-015  1.825E-015  1.048E-015  2.171E-015  1.265E-015  6.990E-016  1.462E-015  1.204E-015  6.252E-016  1.325E-015  1.124E-015  5.583E-016  1.194E-015  7.662E-016  3.742E-016  8.026E-016  1.611E-015  1.380E-015  2.440E-015  9.834E-016  1.241E-015  1.826E-015  1.165E-015  9.290E-016  1.686E-015  1.075E-015  1.172E-015  1.864E-015  1.205E-015  8.421E-016  1.594E-015  1.160E-015  1.087E-015  1.854E-015  1.215E-015  7.587E-016  1.480E-015  1.230E-015  9.955E-016  1.797E-015  8.574E-016  5.101E-016  1.006E-015  1.839E-015  1.229E-015  2.420E-015  1.301E-015  8.221E-016  1.644E-015  1.284E-015  7.381E-016  1.511E-015  1.235E-015  6.608E-016  1.375E-015  8.526E-016  4.433E-016  9.277E-016  1.447E-015  1.552E-015  2.426E-015  8.463E-016  1.293E-015  1.671E-015  1.060E-015  1.055E-015  1.703E-015  9.363E-016  1.264E-015  1.758E-015  1.131E-015  9.702E-016  1.656E-015  1.028E-015  1.206E-015  1.807E-015  1.183E-015  8.829E-016  1.574E-015  1.116E-015  1.128E-015  1.809E-015  8.502E-016  5.958E-016  1.081E-015  1.750E-015  1.424E-015  2.581E-015  1.260E-015  9.570E-016  1.777E-015  1.293E-015  8.654E-016  1.669E-015  1.292E-015  7.784E-016  1.542E-015  9.074E-016  5.230E-016  1.047E-015  9.656E-016  1.156E-015  1.686E-015  5.568E-016  9.201E-016  1.123E-015  7.106E-016  7.910E-016  1.192E-015  6.183E-016  9.169E-016  1.195E-015  7.672E-016  7.353E-016  1.177E-015  6.827E-016  8.904E-016  1.245E-015  8.140E-016  6.742E-016  1.133E-015  7.473E-016  8.449E-016  1.265E-015  5.902E-016  4.563E-016  7.818E-016  4.405E-006  2.836E-006  7.076E-006  3.258E-006  4.050E-006  6.570E-006  2.111E-006  5.051E-006  6.659E-006  1.034E-006  5.709E-006  6.819E-006 -2.951E-008  5.934E-006  6.865E-006  3.464E-006  2.067E-006  5.475E-006  2.574E-006  3.254E-006  4.925E-006  1.687E-006  4.183E-006  4.854E-006  8.408E-007  4.777E-006  4.895E-006 -1.780E-008  4.979E-006  4.895E-006  2.097E-006  1.322E-006  3.210E-006  1.559E-006  2.510E-006  2.852E-006  1.026E-006  3.386E-006  2.749E-006  5.163E-007  3.934E-006  2.726E-006 -3.163E-009  4.122E-006  2.696E-006  7.084E-008  9.264E-007  1.214E-007  4.791E-008  2.128E-006  9.226E-008  2.773E-008  2.986E-006  6.139E-008  1.488E-008  3.519E-006  2.595E-008  1.245E-008  3.708E-006 -1.778E-008  5.303E-006  1.078E-005  1.402E-005  4.795E-006  1.165E-005  1.398E-005  4.294E-006  1.240E-005  1.402E-005  3.602E-006  1.319E-005  1.392E-005  2.974E-006  1.380E-005  1.386E-005  2.219E-006  1.441E-005  1.384E-005  1.550E-006  1.482E-005  1.382E-005  7.651E-007  1.513E-005  1.380E-005  3.380E-008  1.520E-005  1.374E-005  4.714E-006  1.049E-005  1.243E-005  3.842E-006  1.208E-005  1.241E-005  2.681E-006  1.347E-005  1.225E-005  1.410E-006  1.448E-005  1.218E-005  4.433E-008  1.485E-005  1.210E-005  4.133E-006  1.026E-005  1.084E-005  3.758E-006  1.111E-005  1.081E-005  3.385E-006  1.182E-005  1.084E-005  2.857E-006  1.260E-005  1.074E-005  2.375E-006  1.320E-005  1.069E-005  1.785E-006  1.380E-005  1.064E-005  1.258E-006  1.420E-005  1.061E-005  6.354E-007  1.450E-005  1.057E-005  5.446E-008  1.457E-005  1.052E-005  3.321E-006  9.929E-006  8.598E-006  2.735E-006  1.145E-005  8.576E-006  1.930E-006  1.281E-005  8.419E-006  1.036E-006  1.379E-005  8.324E-006  6.571E-008  1.416E-005  8.222E-006  2.499E-006  9.694E-006  6.387E-006  2.286E-006  1.053E-005  6.362E-006  2.070E-006  1.120E-005  6.357E-006  1.756E-006  1.196E-005  6.274E-006  1.469E-006  1.254E-005  6.217E-006  1.117E-006  1.312E-005  6.161E-006  8.009E-007  1.350E-005  6.117E-006  4.262E-007  1.380E-005  6.065E-006  7.606E-008  1.387E-005  6.012E-006  1.336E-006  9.420E-006  3.313E-006  1.112E-006  1.092E-005  3.269E-006  8.014E-007  1.223E-005  3.159E-006  4.570E-007  1.318E-005  3.061E-006  8.985E-008  1.355E-005  2.954E-006  1.600E-007  9.356E-006  2.683E-007  1.488E-007  1.019E-005  2.414E-007  1.388E-007  1.085E-005  2.146E-007  1.281E-007  1.159E-005  1.807E-007  1.202E-007  1.216E-005  1.473E-007  1.101E-007  1.273E-005  1.046E-007  1.032E-007  1.311E-005  6.246E-008  9.936E-008  1.341E-005  1.067E-008  1.013E-007  1.348E-005 -4.123E-008  5.272E-006  2.530E-005  2.041E-005  4.301E-006  2.680E-005  2.043E-005  3.135E-006  2.823E-005  2.033E-005  1.761E-006  2.932E-005  2.016E-005  1.674E-007  2.974E-005  1.997E-005  4.152E-006  2.473E-005  1.569E-005  3.409E-006  2.623E-005  1.571E-005  2.511E-006  2.764E-005  1.563E-005  1.443E-006  2.872E-005  1.547E-005  1.923E-007  2.914E-005  1.528E-005  2.570E-006  2.417E-005  9.274E-006  2.132E-006  2.568E-005  9.256E-006  1.602E-006  2.708E-005  9.176E-006  9.681E-007  2.815E-005  9.028E-006  2.264E-007  2.857E-005  8.848E-006  3.231E-007  2.387E-005  4.150E-007  3.024E-007  2.538E-005  3.330E-007  2.817E-007  2.677E-005  2.292E-007  2.689E-007  2.784E-005  9.868E-008  2.680E-007  2.827E-005 -6.580E-008  4.926E-006  4.473E-005  2.610E-005  4.515E-006  4.545E-005  2.615E-005  4.105E-006  4.609E-005  2.612E-005  3.592E-006  4.679E-005  2.606E-005  3.075E-006  4.738E-005  2.597E-005  2.459E-006  4.797E-005  2.585E-005  1.845E-006  4.839E-005  2.573E-005  1.099E-006  4.871E-005  2.559E-005  3.607E-007  4.877E-005  2.546E-005  4.435E-006  4.448E-005  2.305E-005  3.707E-006  4.584E-005  2.309E-005  2.793E-006  4.712E-005  2.296E-005  1.699E-006  4.814E-005  2.274E-005  3.794E-007  4.852E-005  2.248E-005  3.943E-006  4.426E-005  2.008E-005  3.625E-006  4.496E-005  2.012E-005  3.308E-006  4.561E-005  2.010E-005  2.910E-006  4.630E-005  2.006E-005  2.510E-006  4.690E-005  1.998E-005  2.030E-006  4.748E-005  1.989E-005  1.552E-006  4.791E-005  1.978E-005  9.712E-007  4.822E-005  1.964E-005  3.972E-007  4.829E-005  1.952E-005  3.244E-006  4.399E-005  1.594E-005  2.738E-006  4.534E-005  1.594E-005  2.101E-006  4.662E-005  1.583E-005  1.339E-006  4.764E-005  1.564E-005  4.198E-007  4.802E-005  1.540E-005  2.544E-006  4.378E-005  1.187E-005  2.354E-006  4.448E-005  1.187E-005  2.166E-006  4.512E-005  1.185E-005  1.929E-006  4.581E-005  1.180E-005  1.690E-006  4.641E-005  1.173E-005  1.406E-006  4.699E-005  1.164E-005  1.123E-006  4.742E-005  1.155E-005  7.798E-007  4.773E-005  1.142E-005  4.414E-007  4.780E-005  1.130E-005  1.547E-006  4.359E-005  6.194E-006  1.348E-006  4.493E-005  6.127E-006  1.103E-006  4.622E-005  6.003E-006  8.121E-007  4.723E-005  5.825E-006  4.718E-007  4.762E-005  5.594E-006  5.481E-007  4.350E-005  5.621E-007  5.370E-007  4.421E-005  5.054E-007  5.274E-007  4.485E-005  4.491E-007  5.190E-007  4.555E-005  3.787E-007  5.119E-007  4.614E-005  3.081E-007  5.033E-007  4.673E-005  2.199E-007  4.976E-007  4.716E-005  1.316E-007  4.970E-007  4.748E-005  2.052E-008  5.001E-007  4.755E-005 -9.093E-008  4.530E-006  6.843E-005  3.088E-005  3.837E-006  6.956E-005  3.089E-005  2.976E-006  7.065E-005  3.071E-005  1.920E-006  7.152E-005  3.040E-005  6.323E-007  7.182E-005  3.006E-005  3.700E-006  6.802E-005  2.381E-005  3.162E-006  6.915E-005  2.382E-005  2.494E-006  7.025E-005  2.368E-005  1.673E-006  7.111E-005  2.342E-005  6.722E-007  7.142E-005  2.310E-005  2.526E-006  6.761E-005  1.411E-005  2.202E-006  6.875E-005  1.407E-005  1.803E-006  6.984E-005  1.394E-005  1.315E-006  7.072E-005  1.370E-005  7.276E-007  7.103E-005  1.340E-005  8.511E-007  6.738E-005  7.053E-007  8.319E-007  6.852E-005  5.633E-007  8.118E-007  6.962E-005  3.864E-007  7.993E-007  7.050E-005  1.648E-007  7.972E-007  7.083E-005 -1.138E-007  4.132E-006  9.558E-005  3.489E-005  3.852E-006  9.605E-005  3.492E-005  3.573E-006  9.648E-005  3.488E-005  3.222E-006  9.695E-005  3.478E-005  2.876E-006  9.735E-005  3.466E-005  2.444E-006  9.774E-005  3.448E-005  2.019E-006  9.802E-005  3.430E-005  1.486E-006  9.822E-005  3.408E-005  9.594E-007  9.823E-005  3.389E-005  3.804E-006  9.541E-005  3.087E-005  3.307E-006  9.631E-005  3.087E-005  2.687E-006  9.717E-005  3.068E-005  1.924E-006  9.785E-005  3.034E-005  9.847E-007  9.806E-005  2.995E-005  3.476E-006  9.525E-005  2.691E-005  3.257E-006  9.573E-005  2.693E-005  3.039E-006  9.615E-005  2.691E-005  2.766E-006  9.662E-005  2.683E-005  2.497E-006  9.702E-005  2.673E-005  2.160E-006  9.742E-005  2.658E-005  1.829E-006  9.770E-005  2.642E-005  1.416E-006  9.790E-005  2.622E-005  1.009E-006  9.792E-005  2.604E-005  3.009E-006  9.506E-005  2.141E-005  2.660E-006  9.597E-005  2.138E-005  2.226E-006  9.684E-005  2.122E-005  1.694E-006  9.752E-005  2.093E-005  1.043E-006  9.774E-005  2.056E-005  2.541E-006  9.492E-005  1.598E-005  2.410E-006  9.540E-005  1.596E-005  2.279E-006  9.582E-005  1.592E-005  2.115E-006  9.630E-005  1.585E-005  1.954E-006  9.670E-005  1.575E-005  1.753E-006  9.710E-005  1.562E-005  1.558E-006  9.738E-005  1.548E-005  1.314E-006  9.758E-005  1.529E-005  1.074E-006  9.760E-005  1.512E-005  1.879E-006  9.478E-005  8.389E-006  1.738E-006  9.569E-005  8.276E-006  1.567E-006  9.656E-005  8.089E-006  1.362E-006  9.725E-005  7.820E-006  1.121E-006  9.748E-005  7.476E-006  1.215E-006  9.473E-005  8.450E-007  1.204E-006  9.521E-005  7.605E-007  1.194E-006  9.564E-005  6.770E-007  1.185E-006  9.611E-005  5.701E-007  1.178E-006  9.652E-005  4.649E-007  1.169E-006  9.692E-005  3.310E-007  1.164E-006  9.721E-005  1.980E-007  1.162E-006  9.742E-005  3.056E-008  1.166E-006  9.745E-005 -1.376E-007  3.769E-006  1.255E-004  3.798E-005  3.344E-006  1.261E-004  3.795E-005  2.816E-006  1.268E-004  3.769E-005  2.164E-006  1.272E-004  3.728E-005  1.362E-006  1.273E-004  3.682E-005  3.290E-006  1.252E-004  2.935E-005  2.957E-006  1.259E-004  2.933E-005  2.545E-006  1.265E-004  2.912E-005  2.038E-006  1.270E-004  2.876E-005  1.416E-006  1.271E-004  2.832E-005  2.610E-006  1.250E-004  1.747E-005  2.408E-006  1.256E-004  1.739E-005  2.159E-006  1.263E-004  1.718E-005  1.856E-006  1.268E-004  1.686E-005  1.491E-006  1.269E-004  1.645E-005  1.642E-006  1.248E-004  9.802E-007  1.624E-006  1.255E-004  7.842E-007  1.606E-006  1.261E-004  5.391E-007  1.592E-006  1.266E-004  2.311E-007  1.589E-006  1.268E-004 -1.558E-007  3.453E-006  1.575E-004  4.028E-005  3.308E-006  1.577E-004  4.029E-005  3.164E-006  1.579E-004  4.022E-005  2.984E-006  1.581E-004  4.009E-005  2.805E-006  1.582E-004  3.993E-005  2.583E-006  1.584E-004  3.971E-005  2.363E-006  1.585E-004  3.948E-005  2.090E-006  1.585E-004  3.921E-005  1.821E-006  1.585E-004  3.897E-005  3.305E-006  1.574E-004  3.568E-005  3.046E-006  1.578E-004  3.563E-005  2.726E-006  1.582E-004  3.537E-005  2.333E-006  1.584E-004  3.495E-005  1.852E-006  1.584E-004  3.445E-005  3.157E-006  1.573E-004  3.114E-005  3.042E-006  1.575E-004  3.113E-005  2.929E-006  1.577E-004  3.109E-005  2.788E-006  1.579E-004  3.098E-005  2.648E-006  1.581E-004  3.084E-005  2.474E-006  1.582E-004  3.065E-005  2.303E-006  1.583E-004  3.044E-005  2.091E-006  1.584E-004  3.019E-005  1.884E-006  1.583E-004  2.996E-005  2.947E-006  1.572E-004  2.482E-005  2.762E-006  1.576E-004  2.474E-005  2.535E-006  1.580E-004  2.451E-005  2.259E-006  1.583E-004  2.413E-005  1.926E-006  1.583E-004  2.366E-005  2.736E-006  1.571E-004  1.857E-005  2.664E-006  1.573E-004  1.852E-005  2.594E-006  1.575E-004  1.846E-005  2.507E-006  1.577E-004  1.835E-005  2.422E-006  1.579E-004  1.822E-005  2.317E-006  1.581E-004  1.805E-005  2.214E-006  1.582E-004  1.786E-005  2.089E-006  1.582E-004  1.763E-005  1.968E-006  1.582E-004  1.740E-005  2.435E-006  1.571E-004  9.816E-006  2.355E-006  1.575E-004  9.652E-006  2.259E-006  1.578E-004  9.400E-006  2.149E-006  1.581E-004  9.048E-006  2.026E-006  1.581E-004  8.599E-006  2.133E-006  1.570E-004  1.112E-006  2.123E-006  1.572E-004  1.001E-006  2.113E-006  1.574E-004  8.912E-007  2.103E-006  1.576E-004  7.517E-007  2.095E-006  1.578E-004  6.125E-007  2.087E-006  1.580E-004  4.379E-007  2.082E-006  1.581E-004  2.636E-007  2.081E-006  1.582E-004  4.403E-008  2.083E-006  1.581E-004 -1.752E-007  3.195E-006  1.908E-004  4.167E-005  3.040E-006  1.910E-004  4.158E-005  2.850E-006  1.911E-004  4.126E-005  2.620E-006  1.911E-004  4.077E-005  2.344E-006  1.910E-004  4.020E-005  3.082E-006  1.907E-004  3.226E-005  2.958E-006  1.909E-004  3.219E-005  2.807E-006  1.910E-004  3.191E-005  2.625E-006  1.910E-004  3.147E-005  2.411E-006  1.909E-004  3.093E-005  2.919E-006  1.906E-004  1.928E-005  2.838E-006  1.908E-004  1.915E-005  2.743E-006  1.909E-004  1.888E-005  2.631E-006  1.910E-004  1.848E-005  2.504E-006  1.909E-004  1.797E-005  2.682E-006  1.906E-004  1.242E-006  2.663E-006  1.907E-004  9.946E-007  2.646E-006  1.908E-004  6.840E-007  2.632E-006  1.909E-004  2.940E-007  2.628E-006  1.908E-004 -1.943E-007  2.999E-006  2.248E-004  4.227E-005  2.988E-006  2.248E-004  4.225E-005  2.978E-006  2.247E-004  4.216E-005  2.966E-006  2.247E-004  4.200E-005  2.956E-006  2.246E-004  4.180E-005  2.944E-006  2.245E-004  4.154E-005  2.936E-006  2.244E-004  4.127E-005  2.927E-006  2.243E-004  4.095E-005  2.923E-006  2.242E-004  4.066E-005  3.034E-006  2.248E-004  3.747E-005  3.013E-006  2.247E-004  3.737E-005  2.991E-006  2.246E-004  3.705E-005  2.972E-006  2.244E-004  3.654E-005  2.961E-006  2.242E-004  3.594E-005  3.069E-006  2.248E-004  3.274E-005  3.058E-006  2.248E-004  3.271E-005  3.048E-006  2.247E-004  3.263E-005  3.036E-006  2.247E-004  3.249E-005  3.026E-006  2.246E-004  3.232E-005  3.016E-006  2.245E-004  3.209E-005  3.008E-006  2.244E-004  3.184E-005  3.001E-006  2.243E-004  3.154E-005  2.998E-006  2.242E-004  3.126E-005  3.118E-006  2.248E-004  2.614E-005  3.096E-006  2.247E-004  2.601E-005  3.075E-006  2.246E-004  2.571E-005  3.058E-006  2.244E-004  2.526E-005  3.049E-006  2.242E-004  2.468E-005  3.165E-006  2.248E-004  1.961E-005  3.154E-006  2.248E-004  1.954E-005  3.144E-006  2.247E-004  1.945E-005  3.133E-006  2.247E-004  1.931E-005  3.123E-006  2.246E-004  1.915E-005  3.114E-006  2.245E-004  1.894E-005  3.107E-006  2.244E-004  1.871E-005  3.101E-006  2.243E-004  1.843E-005  3.100E-006  2.242E-004  1.815E-005  3.229E-006  2.248E-004  1.047E-005  3.210E-006  2.247E-004  1.025E-005  3.190E-006  2.246E-004  9.935E-006  3.175E-006  2.244E-004  9.502E-006  3.170E-006  2.242E-004  8.953E-006  3.291E-006  2.248E-004  1.369E-006  3.282E-006  2.247E-004  1.232E-006  3.274E-006  2.247E-004  1.096E-006  3.264E-006  2.246E-004  9.249E-007  3.255E-006  2.246E-004  7.542E-007  3.247E-006  2.245E-004  5.390E-007  3.242E-006  2.244E-004  3.247E-007  3.239E-006  2.243E-004  5.520E-008  3.239E-006  2.242E-004 -2.132E-007  2.870E-006  2.589E-004  4.197E-005  2.980E-006  2.585E-004  4.183E-005  3.124E-006  2.581E-004  4.144E-005  3.314E-006  2.578E-004  4.087E-005  3.565E-006  2.574E-004  4.021E-005  3.120E-006  2.589E-004  3.256E-005  3.201E-006  2.586E-004  3.243E-005  3.309E-006  2.582E-004  3.209E-005  3.452E-006  2.578E-004  3.157E-005  3.646E-006  2.575E-004  3.093E-005  3.470E-006  2.590E-004  1.956E-005  3.510E-006  2.587E-004  1.937E-005  3.566E-006  2.583E-004  1.904E-005  3.645E-006  2.579E-004  1.856E-005  3.758E-006  2.576E-004  1.795E-005  3.961E-006  2.590E-004  1.493E-006  3.941E-006  2.587E-004  1.195E-006  3.925E-006  2.583E-004  8.220E-007  3.911E-006  2.579E-004  3.535E-007  3.909E-006  2.576E-004 -2.350E-007  2.807E-006  2.923E-004  4.090E-005  2.927E-006  2.920E-004  4.085E-005  3.049E-006  2.917E-004  4.073E-005  3.202E-006  2.913E-004  4.054E-005  3.357E-006  2.910E-004  4.032E-005  3.554E-006  2.907E-004  4.002E-005  3.752E-006  2.904E-004  3.971E-005  4.005E-006  2.902E-004  3.934E-005  4.261E-006  2.900E-004  3.899E-005  3.022E-006  2.923E-004  3.629E-005  3.234E-006  2.917E-004  3.614E-005  3.506E-006  2.911E-004  3.575E-005  3.855E-006  2.905E-004  3.517E-005  4.305E-006  2.901E-004  3.447E-005  3.237E-006  2.924E-004  3.174E-005  3.328E-006  2.921E-004  3.168E-005  3.419E-006  2.918E-004  3.158E-005  3.536E-006  2.915E-004  3.141E-005  3.654E-006  2.912E-004  3.121E-005  3.804E-006  2.908E-004  3.094E-005  3.957E-006  2.906E-004  3.065E-005  4.151E-006  2.903E-004  3.030E-005  4.349E-006  2.901E-004  2.996E-005  3.540E-006  2.925E-004  2.540E-005  3.681E-006  2.919E-004  2.522E-005  3.863E-006  2.912E-004  2.486E-005  4.100E-006  2.907E-004  2.432E-005  4.410E-006  2.902E-004  2.365E-005  3.843E-006  2.925E-004  1.913E-005  3.892E-006  2.922E-004  1.904E-005  3.941E-006  2.919E-004  1.892E-005  4.005E-006  2.916E-004  1.875E-005  4.071E-006  2.913E-004  1.856E-005  4.155E-006  2.910E-004  1.830E-005  4.242E-006  2.907E-004  1.804E-005  4.354E-006  2.905E-004  1.770E-005  4.471E-006  2.903E-004  1.738E-005  4.266E-006  2.926E-004  1.035E-005  4.308E-006  2.920E-004  1.008E-005  4.363E-006  2.914E-004  9.704E-006  4.443E-006  2.908E-004  9.193E-006  4.556E-006  2.903E-004  8.546E-006  4.687E-006  2.926E-004  1.614E-006  4.679E-006  2.923E-004  1.453E-006  4.672E-006  2.920E-004  1.292E-006  4.662E-006  2.917E-004  1.089E-006  4.654E-006  2.914E-004  8.866E-007  4.647E-006  2.911E-004  6.335E-007  4.643E-006  2.908E-004  3.799E-007  4.638E-006  2.905E-004  6.220E-008  4.638E-006  2.904E-004 -2.557E-007  2.813E-006  3.243E-004  3.894E-005  3.184E-006  3.235E-004  3.875E-005  3.656E-006  3.226E-004  3.830E-005  4.255E-006  3.218E-004  3.766E-005  5.020E-006  3.212E-004  3.690E-005  3.419E-006  3.245E-004  3.028E-005  3.702E-006  3.237E-004  3.009E-005  4.063E-006  3.228E-004  2.969E-005  4.524E-006  3.220E-004  2.910E-005  5.116E-006  3.215E-004  2.836E-005  4.273E-006  3.247E-004  1.833E-005  4.432E-006  3.239E-004  1.809E-005  4.636E-006  3.230E-004  1.770E-005  4.902E-006  3.222E-004  1.714E-005  5.248E-006  3.217E-004  1.643E-005  5.476E-006  3.248E-004  1.732E-006  5.458E-006  3.240E-004  1.385E-006  5.442E-006  3.231E-004  9.504E-007  5.430E-006  3.223E-004  4.064E-007  5.429E-006  3.218E-004 -2.771E-007  2.889E-006  3.544E-004  3.624E-005  3.138E-006  3.538E-004  3.616E-005  3.388E-006  3.533E-004  3.602E-005  3.703E-006  3.527E-004  3.579E-005  4.019E-006  3.522E-004  3.554E-005  4.418E-006  3.516E-004  3.520E-005  4.818E-006  3.512E-004  3.486E-005  5.325E-006  3.507E-004  3.445E-005  5.833E-006  3.505E-004  3.406E-005  3.279E-006  3.545E-004  3.218E-005  3.719E-006  3.535E-004  3.198E-005  4.277E-006  3.523E-004  3.153E-005  4.985E-006  3.513E-004  3.088E-005  5.884E-006  3.507E-004  3.009E-005  3.669E-006  3.547E-004  2.819E-005  3.859E-006  3.541E-004  2.811E-005  4.050E-006  3.536E-004  2.798E-005  4.292E-006  3.530E-004  2.778E-005  4.535E-006  3.525E-004  2.755E-005  4.842E-006  3.519E-004  2.724E-005  5.150E-006  3.515E-004  2.692E-005  5.541E-006  3.510E-004  2.652E-005  5.935E-006  3.508E-004  2.614E-005  4.221E-006  3.548E-004  2.264E-005  4.518E-006  3.538E-004  2.240E-005  4.899E-006  3.526E-004  2.198E-005  5.384E-006  3.516E-004  2.138E-005  6.006E-006  3.510E-004  2.061E-005  4.771E-006  3.550E-004  1.715E-005  4.878E-006  3.544E-004  1.703E-005  4.986E-006  3.539E-004  1.689E-005  5.123E-006  3.533E-004  1.669E-005  5.262E-006  3.528E-004  1.647E-005  5.439E-006  3.522E-004  1.617E-005  5.618E-006  3.518E-004  1.587E-005  5.846E-006  3.513E-004  1.549E-005  6.077E-006  3.511E-004  1.512E-005  5.544E-006  3.551E-004  9.475E-006  5.644E-006  3.540E-004  9.159E-006  5.774E-006  3.529E-004  8.720E-006  5.947E-006  3.519E-004  8.136E-006  6.177E-006  3.512E-004  7.396E-006  6.314E-006  3.551E-004  1.843E-006  6.306E-006  3.545E-004  1.657E-006  6.299E-006  3.540E-004  1.472E-006  6.291E-006  3.534E-004  1.240E-006  6.284E-006  3.529E-004  1.009E-006  6.279E-006  3.524E-004  7.190E-007  6.275E-006  3.519E-004  4.296E-007  6.274E-006  3.515E-004  6.455E-008  6.276E-006  3.513E-004 -3.003E-007  3.035E-006  3.818E-004  3.267E-005  3.658E-006  3.805E-004  3.242E-005  4.446E-006  3.791E-004  3.192E-005  5.442E-006  3.779E-004  3.121E-005  6.703E-006  3.772E-004  3.036E-005  3.984E-006  3.822E-004  2.548E-005  4.462E-006  3.809E-004  2.525E-005  5.068E-006  3.795E-004  2.479E-005  5.836E-006  3.783E-004  2.413E-005  6.812E-006  3.775E-004  2.330E-005  5.323E-006  3.825E-004  1.562E-005  5.597E-006  3.812E-004  1.533E-005  5.946E-006  3.799E-004  1.487E-005  6.391E-006  3.787E-004  1.425E-005  6.964E-006  3.779E-004  1.345E-005  7.214E-006  3.827E-004  1.950E-006  7.198E-006  3.814E-004  1.557E-006  7.183E-006  3.801E-004  1.066E-006  7.173E-006  3.789E-004  4.500E-007  7.172E-006  3.781E-004 -3.225E-007  3.250E-006  4.060E-004  2.838E-005  3.623E-006  4.052E-004  2.828E-005  3.996E-006  4.044E-004  2.811E-005  4.466E-006  4.036E-004  2.786E-005  4.936E-006  4.029E-004  2.758E-005  5.530E-006  4.021E-004  2.721E-005  6.124E-006  4.014E-004  2.684E-005  6.874E-006  4.009E-004  2.639E-005  7.626E-006  4.006E-004  2.596E-005  3.808E-006  4.062E-004  2.525E-005  4.467E-006  4.047E-004  2.499E-005  5.299E-006  4.031E-004  2.449E-005  6.352E-006  4.017E-004  2.377E-005  7.684E-006  4.008E-004  2.290E-005  4.366E-006  4.064E-004  2.218E-005  4.651E-006  4.056E-004  2.206E-005  4.938E-006  4.049E-004  2.191E-005  5.300E-006  4.040E-004  2.168E-005  5.662E-006  4.033E-004  2.143E-005  6.120E-006  4.025E-004  2.108E-005  6.578E-006  4.019E-004  2.073E-005  7.158E-006  4.013E-004  2.029E-005  7.740E-006  4.010E-004  1.987E-005  5.155E-006  4.067E-004  1.792E-005  5.604E-006  4.051E-004  1.763E-005  6.175E-006  4.036E-004  1.716E-005  6.899E-006  4.021E-004  1.648E-005  7.821E-006  4.013E-004  1.564E-005  5.942E-006  4.069E-004  1.372E-005  6.105E-006  4.061E-004  1.357E-005  6.269E-006  4.053E-004  1.341E-005  6.477E-006  4.045E-004  1.318E-005  6.687E-006  4.037E-004  1.293E-005  6.952E-006  4.030E-004  1.260E-005  7.220E-006  4.023E-004  1.227E-005  7.558E-006  4.018E-004  1.185E-005  7.900E-006  4.015E-004  1.143E-005  7.049E-006  4.070E-004  7.864E-006  7.206E-006  4.055E-004  7.502E-006  7.409E-006  4.039E-004  7.007E-006  7.671E-006  4.025E-004  6.355E-006  8.013E-006  4.017E-004  5.531E-006  8.154E-006  4.071E-004  2.051E-006  8.147E-006  4.063E-004  1.843E-006  8.141E-006  4.055E-004  1.637E-006  8.134E-006  4.047E-004  1.377E-006  8.129E-006  4.040E-004  1.119E-006  8.124E-006  4.032E-004  7.933E-007  8.121E-006  4.026E-004  4.697E-007  8.121E-006  4.020E-004  6.158E-008  8.125E-006  4.017E-004 -3.449E-007  3.535E-006  4.263E-004  2.328E-005  4.398E-006  4.245E-004  2.298E-005  5.488E-006  4.227E-004  2.243E-005  6.862E-006  4.211E-004  2.166E-005  8.600E-006  4.202E-004  2.074E-005  4.811E-006  4.268E-004  1.828E-005  5.475E-006  4.250E-004  1.799E-005  6.314E-006  4.232E-004  1.748E-005  7.376E-006  4.216E-004  1.675E-005  8.720E-006  4.207E-004  1.585E-005  6.611E-006  4.273E-004  1.148E-005  6.995E-006  4.255E-004  1.114E-005  7.481E-006  4.237E-004  1.064E-005  8.100E-006  4.221E-004  9.946E-006  8.889E-006  4.212E-004  9.072E-006  9.157E-006  4.275E-004  2.143E-006  9.142E-006  4.258E-004  1.709E-006  9.129E-006  4.240E-004  1.166E-006  9.120E-006  4.224E-004  4.855E-007  9.121E-006  4.215E-004 -3.689E-007  3.885E-006  4.422E-004  1.749E-005  4.374E-006  4.411E-004  1.736E-005  4.864E-006  4.402E-004  1.717E-005  5.481E-006  4.391E-004  1.690E-005  6.098E-006  4.381E-004  1.659E-005  6.876E-006  4.371E-004  1.620E-005  7.655E-006  4.363E-004  1.580E-005  8.636E-006  4.357E-004  1.531E-005  9.619E-006  4.353E-004  1.484E-005  4.601E-006  4.425E-004  1.562E-005  5.467E-006  4.405E-004  1.532E-005  6.560E-006  4.384E-004  1.476E-005  7.939E-006  4.367E-004  1.399E-005  9.681E-006  4.356E-004  1.305E-005  5.318E-006  4.427E-004  1.381E-005  5.694E-006  4.417E-004  1.367E-005  6.071E-006  4.407E-004  1.350E-005  6.546E-006  4.397E-004  1.324E-005  7.022E-006  4.387E-004  1.296E-005  7.623E-006  4.377E-004  1.259E-005  8.224E-006  4.369E-004  1.221E-005  8.983E-006  4.362E-004  1.173E-005  9.744E-006  4.359E-004  1.127E-005  6.331E-006  4.430E-004  1.132E-005  6.924E-006  4.411E-004  1.099E-005  7.675E-006  4.390E-004  1.046E-005  8.626E-006  4.373E-004  9.731E-006  9.833E-006  4.362E-004  8.811E-006  7.343E-006  4.433E-004  8.899E-006  7.560E-006  4.423E-004  8.728E-006  7.776E-006  4.413E-004  8.541E-006  8.051E-006  4.402E-004  8.284E-006  8.328E-006  4.393E-004  8.011E-006  8.677E-006  4.383E-004  7.654E-006  9.028E-006  4.375E-004  7.290E-006  9.473E-006  4.368E-004  6.832E-006  9.921E-006  4.365E-004  6.380E-006  8.766E-006  4.435E-004  5.543E-006  8.978E-006  4.415E-004  5.139E-006  9.249E-006  4.395E-004  4.594E-006  9.597E-006  4.377E-004  3.881E-006  1.005E-005  4.367E-004  2.982E-006  1.019E-005  4.436E-004  2.228E-006  1.018E-005  4.425E-004  2.001E-006  1.018E-005  4.416E-004  1.775E-006  1.017E-005  4.405E-004  1.492E-006  1.017E-005  4.396E-004  1.210E-006  1.017E-005  4.386E-004  8.531E-007  1.016E-005  4.378E-004  4.975E-007  1.016E-005  4.371E-004  5.272E-008  1.017E-005  4.368E-004 -3.906E-007  4.302E-006  4.529E-004  1.093E-005  5.392E-006  4.507E-004  1.059E-005  6.766E-006  4.485E-004  9.993E-006  8.498E-006  4.465E-004  9.174E-006  1.068E-005  4.454E-004  8.186E-006  5.885E-006  4.536E-004  8.780E-006  6.724E-006  4.514E-004  8.447E-006  7.784E-006  4.492E-004  7.887E-006  9.122E-006  4.472E-004  7.108E-006  1.081E-005  4.461E-004  6.142E-006  8.119E-006  4.542E-004  5.992E-006  8.606E-006  4.520E-004  5.612E-006  9.223E-006  4.498E-004  5.059E-006  1.000E-005  4.478E-004  4.310E-006  1.100E-005  4.467E-004  3.366E-006  1.128E-005  4.545E-004  2.304E-006  1.126E-005  4.523E-004  1.834E-006  1.125E-005  4.501E-004  1.245E-006  1.125E-005  4.482E-004  5.074E-007  1.125E-005  4.470E-004 -4.184E-007  4.785E-006  4.581E-004  3.739E-006  5.383E-006  4.569E-004  3.584E-006  5.982E-006  4.557E-004  3.376E-006  6.736E-006  4.544E-004  3.079E-006  7.490E-006  4.533E-004  2.757E-006  8.440E-006  4.521E-004  2.338E-006  9.390E-006  4.512E-004  1.916E-006  1.059E-005  4.503E-004  1.396E-006  1.178E-005  4.499E-004  8.977E-007  5.649E-006  4.585E-004  3.454E-006  6.709E-006  4.561E-004  3.103E-006  8.045E-006  4.537E-004  2.507E-006  9.728E-006  4.515E-004  1.687E-006  1.185E-005  4.503E-004  6.797E-007  6.513E-006  4.588E-004  3.220E-006  6.974E-006  4.576E-004  3.059E-006  7.435E-006  4.564E-004  2.865E-006  8.017E-006  4.551E-004  2.586E-006  8.599E-006  4.540E-004  2.283E-006  9.332E-006  4.528E-004  1.885E-006  1.007E-005  4.519E-004  1.480E-006  1.099E-005  4.511E-004  9.753E-007  1.192E-005  4.507E-004  4.827E-007  7.736E-006  4.592E-004  2.965E-006  8.462E-006  4.568E-004  2.591E-006  9.382E-006  4.544E-004  2.018E-006  1.054E-005  4.523E-004  1.234E-006  1.202E-005  4.511E-004  2.478E-007  8.957E-006  4.595E-004  2.768E-006  9.223E-006  4.583E-004  2.575E-006  9.489E-006  4.571E-004  2.367E-006  9.827E-006  4.558E-004  2.087E-006  1.017E-005  4.547E-004  1.792E-006  1.059E-005  4.535E-004  1.408E-006  1.102E-005  4.526E-004  1.018E-006  1.157E-005  4.518E-004  5.280E-007  1.211E-005  4.514E-004  4.264E-008  1.068E-005  4.598E-004  2.552E-006  1.094E-005  4.574E-004  2.109E-006  1.127E-005  4.550E-004  1.520E-006  1.170E-005  4.529E-004  7.542E-007  1.225E-005  4.516E-004 -2.115E-007  1.239E-005  4.599E-004  2.374E-006  1.239E-005  4.586E-004  2.130E-006  1.238E-005  4.575E-004  1.887E-006  1.238E-005  4.562E-004  1.581E-006  1.238E-005  4.551E-004  1.278E-006  1.238E-005  4.539E-004  8.949E-007  1.237E-005  4.529E-004  5.137E-007  1.238E-005  4.521E-004  3.458E-008  1.238E-005  4.517E-004 -4.432E-007  5.336E-006  4.572E-004 -4.168E-006  6.635E-006  4.546E-004 -4.552E-006  8.272E-006  4.520E-004 -5.189E-006  1.033E-005  4.497E-004 -6.050E-006  1.293E-005  4.483E-004 -7.096E-006  7.201E-006  4.579E-004 -2.853E-006  8.203E-006  4.554E-004 -3.230E-006  9.466E-006  4.527E-004 -3.832E-006  1.106E-005  4.504E-004 -4.657E-006  1.307E-005  4.491E-004 -5.681E-006  9.835E-006  4.587E-004 -7.595E-007  1.042E-005  4.561E-004 -1.179E-006  1.116E-005  4.535E-004 -1.775E-006  1.209E-005  4.512E-004 -2.572E-006  1.326E-005  4.499E-004 -3.577E-006  1.356E-005  4.591E-004  2.434E-006  1.355E-005  4.565E-004  1.932E-006  1.354E-005  4.539E-004  1.304E-006  1.354E-005  4.516E-004  5.172E-007  1.354E-005  4.503E-004 -4.697E-007  5.949E-006  4.496E-004 -1.266E-005  6.648E-006  4.481E-004 -1.284E-005  7.347E-006  4.468E-004 -1.306E-005  8.227E-006  4.453E-004 -1.338E-005  9.106E-006  4.440E-004 -1.372E-005  1.021E-005  4.426E-004 -1.416E-005  1.132E-005  4.415E-004 -1.460E-005  1.271E-005  4.406E-004 -1.514E-005  1.410E-005  4.401E-004 -1.567E-005  6.948E-006  4.500E-004 -1.106E-005  8.186E-006  4.472E-004 -1.145E-005  9.744E-006  4.444E-004 -1.209E-005  1.170E-005  4.420E-004 -1.295E-005  1.417E-005  4.406E-004 -1.401E-005  7.947E-006  4.504E-004 -9.417E-006  8.486E-006  4.489E-004 -9.601E-006  9.025E-006  4.476E-004 -9.814E-006  9.703E-006  4.461E-004 -1.011E-005  1.038E-005  4.448E-004 -1.044E-005  1.124E-005  4.434E-004 -1.085E-005  1.209E-005  4.424E-004 -1.128E-005  1.317E-005  4.414E-004 -1.181E-005  1.424E-005  4.410E-004 -1.233E-005  9.361E-006  4.508E-004 -7.023E-006  1.021E-005  4.481E-004 -7.437E-006  1.128E-005  4.453E-004 -8.050E-006  1.264E-005  4.428E-004 -8.878E-006  1.435E-005  4.414E-004 -9.918E-006  1.077E-005  4.512E-004 -4.578E-006  1.109E-005  4.497E-004 -4.790E-006  1.140E-005  4.484E-004 -5.015E-006  1.179E-005  4.469E-004 -5.316E-006  1.219E-005  4.456E-004 -5.630E-006  1.269E-005  4.442E-004 -6.036E-006  1.319E-005  4.432E-004 -6.448E-006  1.382E-005  4.422E-004 -6.966E-006  1.445E-005  4.418E-004 -7.479E-006  1.276E-005  4.515E-004 -1.062E-006  1.307E-005  4.487E-004 -1.538E-006  1.346E-005  4.459E-004 -2.166E-006  1.396E-005  4.435E-004 -2.976E-006  1.460E-005  4.421E-004 -3.997E-006  1.475E-005  4.516E-004  2.489E-006  1.475E-005  4.502E-004  2.230E-006  1.475E-005  4.488E-004  1.972E-006  1.474E-005  4.474E-004  1.649E-006  1.474E-005  4.461E-004  1.325E-006  1.474E-005  4.447E-004  9.218E-007  1.474E-005  4.436E-004  5.182E-007  1.474E-005  4.427E-004  1.156E-008  1.474E-005  4.422E-004 -4.967E-007  6.626E-006  4.348E-004 -2.180E-005  8.114E-006  4.318E-004 -2.222E-005  9.988E-006  4.289E-004 -2.289E-005  1.234E-005  4.263E-004 -2.378E-005  1.530E-005  4.248E-004 -2.487E-005  8.747E-006  4.357E-004 -1.645E-005  9.895E-006  4.327E-004 -1.686E-005  1.134E-005  4.297E-004 -1.750E-005  1.316E-005  4.271E-004 -1.836E-005  1.545E-005  4.257E-004 -1.943E-005  1.174E-005  4.365E-004 -8.672E-006  1.241E-005  4.336E-004 -9.125E-006  1.326E-005  4.306E-004 -9.757E-006  1.432E-005  4.280E-004 -1.059E-005  1.567E-005  4.265E-004 -1.165E-005  1.598E-005  4.370E-004  2.533E-006  1.597E-005  4.340E-004  2.005E-006  1.596E-005  4.310E-004  1.345E-006  1.596E-005  4.285E-004  5.185E-007  1.596E-005  4.270E-004 -5.189E-007  7.361E-006  4.124E-004 -3.146E-005  8.149E-006  4.108E-004 -3.166E-005  8.937E-006  4.093E-004 -3.190E-005  9.928E-006  4.076E-004 -3.223E-005  1.092E-005  4.062E-004 -3.258E-005  1.216E-005  4.046E-004 -3.303E-005  1.341E-005  4.034E-004 -3.348E-005  1.497E-005  4.024E-004 -3.404E-005  1.653E-005  4.019E-004 -3.459E-005  8.480E-006  4.129E-004 -2.771E-005  9.875E-006  4.098E-004 -2.814E-005  1.163E-005  4.067E-004 -2.880E-005  1.384E-005  4.039E-004 -2.968E-005  1.661E-005  4.024E-004 -3.078E-005  9.599E-006  4.133E-004 -2.392E-005  1.021E-005  4.117E-004 -2.412E-005  1.081E-005  4.102E-004 -2.435E-005  1.158E-005  4.086E-004 -2.466E-005  1.234E-005  4.071E-004 -2.500E-005  1.331E-005  4.056E-004 -2.543E-005  1.427E-005  4.044E-004 -2.587E-005  1.548E-005  4.033E-004 -2.642E-005  1.669E-005  4.028E-004 -2.696E-005  1.118E-005  4.138E-004 -1.849E-005  1.214E-005  4.107E-004 -1.894E-005  1.335E-005  4.076E-004 -1.958E-005  1.488E-005  4.049E-004 -2.044E-005  1.680E-005  4.034E-004 -2.153E-005  1.277E-005  4.142E-004 -1.303E-005  1.312E-005  4.126E-004 -1.325E-005  1.347E-005  4.111E-004 -1.349E-005  1.392E-005  4.095E-004 -1.381E-005  1.436E-005  4.080E-004 -1.414E-005  1.492E-005  4.065E-004 -1.456E-005  1.549E-005  4.053E-004 -1.499E-005  1.620E-005  4.042E-004 -1.553E-005  1.691E-005  4.038E-004 -1.606E-005  1.500E-005  4.146E-004 -5.245E-006  1.535E-005  4.115E-004 -5.747E-006  1.579E-005  4.084E-004 -6.402E-006  1.635E-005  4.056E-004 -7.246E-006  1.706E-005  4.041E-004 -8.313E-006  1.723E-005  4.147E-004  2.565E-006  1.722E-005  4.131E-004  2.298E-006  1.722E-005  4.116E-004  2.030E-006  1.722E-005  4.099E-004  1.693E-006  1.722E-005  4.085E-004  1.356E-006  1.722E-005  4.070E-004  9.351E-007  1.721E-005  4.058E-004  5.163E-007  1.722E-005  4.047E-004 -1.409E-008  1.722E-005  4.043E-004 -5.420E-007  8.160E-006  3.820E-004 -4.168E-005  9.813E-006  3.787E-004 -4.214E-005  1.189E-005  3.754E-004 -4.283E-005  1.451E-005  3.726E-004 -4.374E-005  1.778E-005  3.710E-004 -4.486E-005  1.050E-005  3.829E-004 -3.179E-005  1.178E-005  3.797E-004 -3.224E-005  1.338E-005  3.764E-004 -3.290E-005  1.540E-005  3.735E-004 -3.379E-005  1.794E-005  3.720E-004 -3.489E-005  1.381E-005  3.839E-004 -1.762E-005  1.456E-005  3.806E-004 -1.810E-005  1.550E-005  3.773E-004 -1.876E-005  1.668E-005  3.745E-004 -1.962E-005  1.817E-005  3.729E-004 -2.071E-005  1.850E-005  3.844E-004  2.593E-006  1.849E-005  3.811E-004  2.048E-006  1.848E-005  3.778E-004  1.365E-006  1.848E-005  3.750E-004  5.076E-007  1.849E-005  3.734E-004 -5.669E-007  9.016E-006  3.431E-004 -5.234E-005  9.878E-006  3.413E-004 -5.256E-005  1.074E-005  3.397E-004 -5.281E-005  1.183E-005  3.378E-004 -5.315E-005  1.291E-005  3.362E-004 -5.351E-005  1.427E-005  3.346E-004 -5.397E-005  1.563E-005  3.333E-004 -5.443E-005  1.734E-005  3.322E-004 -5.501E-005  1.904E-005  3.316E-004 -5.557E-005  1.024E-005  3.436E-004 -4.620E-005  1.176E-005  3.402E-004 -4.666E-005  1.369E-005  3.368E-004 -4.735E-005  1.610E-005  3.338E-004 -4.825E-005  1.913E-005  3.322E-004 -4.938E-005  1.146E-005  3.441E-004 -4.002E-005  1.212E-005  3.423E-004 -4.025E-005  1.279E-005  3.407E-004 -4.049E-005  1.363E-005  3.389E-004 -4.082E-005  1.446E-005  3.373E-004 -4.117E-005  1.552E-005  3.356E-004 -4.161E-005  1.657E-005  3.343E-004 -4.206E-005  1.789E-005  3.332E-004 -4.262E-005  1.921E-005  3.326E-004 -4.318E-005  1.318E-005  3.446E-004 -3.124E-005  1.424E-005  3.412E-004 -3.172E-005  1.556E-005  3.378E-004 -3.239E-005  1.723E-005  3.349E-004 -3.327E-005  1.933E-005  3.332E-004 -3.438E-005  1.491E-005  3.451E-004 -2.243E-005  1.530E-005  3.433E-004 -2.267E-005  1.568E-005  3.417E-004 -2.292E-005  1.617E-005  3.399E-004 -2.325E-005  1.666E-005  3.383E-004 -2.359E-005  1.728E-005  3.366E-004 -2.403E-005  1.790E-005  3.353E-004 -2.447E-005  1.867E-005  3.342E-004 -2.502E-005  1.944E-005  3.337E-004 -2.557E-005  1.735E-005  3.455E-004 -9.915E-006  1.773E-005  3.421E-004 -1.044E-005  1.822E-005  3.387E-004 -1.112E-005  1.883E-005  3.357E-004 -1.199E-005  1.961E-005  3.341E-004 -1.309E-005  1.977E-005  3.456E-004  2.618E-006  1.977E-005  3.438E-004  2.343E-006  1.977E-005  3.422E-004  2.068E-006  1.977E-005  3.404E-004  1.719E-006  1.977E-005  3.388E-004  1.371E-006  1.977E-005  3.371E-004  9.383E-007  1.977E-005  3.358E-004  5.042E-007  1.978E-005  3.347E-004 -4.335E-008  1.978E-005  3.342E-004 -5.919E-007  9.940E-006  2.953E-004 -6.345E-005  1.173E-005  2.918E-004 -6.394E-005  1.397E-005  2.883E-004 -6.464E-005  1.679E-005  2.852E-004 -6.557E-005  2.033E-005  2.835E-004 -6.671E-005  1.246E-005  2.964E-004 -4.859E-005  1.384E-005  2.929E-004 -4.907E-005  1.558E-005  2.893E-004 -4.975E-005  1.776E-005  2.863E-004 -5.066E-005  2.050E-005  2.846E-004 -5.179E-005  1.603E-005  2.974E-004 -2.743E-005  1.684E-005  2.939E-004 -2.793E-005  1.785E-005  2.904E-004 -2.861E-005  1.913E-005  2.873E-004 -2.950E-005  2.074E-005  2.856E-004 -3.062E-005  2.106E-005  2.979E-004  2.636E-006  2.107E-005  2.944E-004  2.079E-006  2.107E-005  2.909E-004  1.378E-006  2.107E-005  2.878E-004  4.977E-007  2.108E-005  2.861E-004 -6.099E-007  1.092E-005  2.385E-004 -7.490E-005  1.184E-005  2.366E-004 -7.514E-005  1.276E-005  2.349E-004 -7.540E-005  1.392E-005  2.329E-004 -7.575E-005  1.508E-005  2.312E-004 -7.611E-005  1.653E-005  2.295E-004 -7.658E-005  1.799E-005  2.281E-004 -7.704E-005  1.981E-005  2.269E-004 -7.762E-005  2.163E-005  2.263E-004 -7.819E-005  1.222E-005  2.391E-004 -6.618E-005  1.385E-005  2.355E-004 -6.667E-005  1.590E-005  2.318E-004 -6.738E-005  1.848E-005  2.287E-004 -6.829E-005  2.172E-005  2.269E-004 -6.944E-005  1.352E-005  2.396E-004 -5.743E-005  1.423E-005  2.377E-004 -5.767E-005  1.494E-005  2.360E-004 -5.793E-005  1.584E-005  2.340E-004 -5.827E-005  1.673E-005  2.323E-004 -5.863E-005  1.786E-005  2.305E-004 -5.908E-005  1.898E-005  2.292E-004 -5.954E-005  2.040E-005  2.280E-004 -6.011E-005  2.181E-005  2.274E-004 -6.067E-005  1.536E-005  2.402E-004 -4.503E-005  1.649E-005  2.366E-004 -4.554E-005  1.790E-005  2.329E-004 -4.623E-005  1.968E-005  2.298E-004 -4.713E-005  2.193E-005  2.280E-004 -4.826E-005  1.720E-005  2.406E-004 -3.260E-005  1.761E-005  2.388E-004 -3.285E-005  1.803E-005  2.370E-004 -3.312E-005  1.855E-005  2.351E-004 -3.346E-005  1.907E-005  2.334E-004 -3.381E-005  1.973E-005  2.316E-004 -3.425E-005  2.039E-005  2.302E-004 -3.470E-005  2.122E-005  2.290E-004 -3.527E-005  2.205E-005  2.285E-004 -3.583E-005  1.979E-005  2.410E-004 -1.498E-005  2.020E-005  2.375E-004 -1.552E-005  2.072E-005  2.338E-004 -1.622E-005  2.139E-005  2.307E-004 -1.711E-005  2.222E-005  2.289E-004 -1.824E-005  2.238E-005  2.412E-004  2.652E-006  2.238E-005  2.393E-004  2.370E-006  2.237E-005  2.376E-004  2.089E-006  2.238E-005  2.357E-004  1.735E-006  2.238E-005  2.340E-004  1.381E-006  2.238E-005  2.322E-004  9.346E-007  2.239E-005  2.308E-004  4.883E-007  2.239E-005  2.296E-004 -7.133E-008  2.239E-005  2.291E-004 -6.331E-007  1.197E-005  1.722E-004 -8.669E-005  1.386E-005  1.685E-004 -8.720E-005  1.623E-005  1.648E-004 -8.792E-005  1.920E-005  1.616E-004 -8.885E-005  2.293E-005  1.598E-004 -9.001E-005  1.463E-005  1.733E-004 -6.652E-005  1.609E-005  1.697E-004 -6.704E-005  1.792E-005  1.659E-004 -6.774E-005  2.022E-005  1.627E-004 -6.865E-005  2.311E-005  1.609E-004 -6.980E-005  1.839E-005  1.744E-004 -3.790E-005  1.924E-005  1.707E-004 -3.844E-005  2.031E-005  1.670E-004 -3.914E-005  2.166E-005  1.638E-004 -4.004E-005  2.336E-005  1.620E-004 -4.118E-005  2.369E-005  1.750E-004  2.664E-006  2.370E-005  1.713E-004  2.097E-006  2.370E-005  1.676E-004  1.381E-006  2.370E-005  1.643E-004  4.807E-007  2.371E-005  1.626E-004 -6.503E-007  1.308E-005  9.637E-005 -9.871E-005  1.404E-005  9.440E-005 -9.897E-005  1.500E-005  9.260E-005 -9.924E-005  1.621E-005  9.057E-005 -9.960E-005  1.742E-005  8.881E-005 -9.997E-005  1.893E-005  8.695E-005 -1.004E-004  2.045E-005  8.550E-005 -1.009E-004  2.235E-005  8.427E-005 -1.015E-004  2.425E-005  8.368E-005 -1.021E-004  1.443E-005  9.697E-005 -8.727E-005  1.614E-005  9.321E-005 -8.780E-005  1.828E-005  8.941E-005 -8.852E-005  2.097E-005  8.611E-005 -8.944E-005  2.434E-005  8.429E-005 -9.061E-005  1.579E-005  9.750E-005 -7.581E-005  1.653E-005  9.553E-005 -7.607E-005  1.727E-005  9.374E-005 -7.634E-005  1.821E-005  9.171E-005 -7.669E-005  1.914E-005  8.994E-005 -7.705E-005  2.031E-005  8.809E-005 -7.751E-005  2.148E-005  8.664E-005 -7.797E-005  2.296E-005  8.541E-005 -7.856E-005  2.443E-005  8.483E-005 -7.913E-005  1.771E-005  9.812E-005 -5.958E-005  1.888E-005  9.436E-005 -6.012E-005  2.036E-005  9.057E-005 -6.083E-005  2.222E-005  8.727E-005 -6.174E-005  2.456E-005  8.546E-005 -6.290E-005  1.963E-005  9.860E-005 -4.333E-005  2.006E-005  9.664E-005 -4.360E-005  2.049E-005  9.485E-005 -4.388E-005  2.103E-005  9.282E-005 -4.423E-005  2.158E-005  9.106E-005 -4.459E-005  2.227E-005  8.920E-005 -4.504E-005  2.295E-005  8.776E-005 -4.550E-005  2.381E-005  8.653E-005 -4.608E-005  2.468E-005  8.595E-005 -4.665E-005  2.233E-005  9.905E-005 -2.033E-005  2.276E-005  9.530E-005 -2.089E-005  2.330E-005  9.150E-005 -2.161E-005  2.399E-005  8.821E-005 -2.251E-005  2.486E-005  8.640E-005 -2.366E-005  2.503E-005  9.920E-005  2.679E-006  2.503E-005  9.724E-005  2.392E-006  2.503E-005  9.545E-005  2.107E-006  2.503E-005  9.342E-005  1.745E-006  2.503E-005  9.166E-005  1.385E-006  2.503E-005  8.980E-005  9.293E-007  2.503E-005  8.836E-005  4.758E-007  2.504E-005  8.713E-005 -9.608E-008  2.504E-005  8.656E-005 -6.645E-007  1.425E-005  1.067E-005 -1.110E-004  1.620E-005  6.849E-006 -1.115E-004  1.865E-005  2.997E-006 -1.122E-004  2.172E-005 -3.524E-007 -1.132E-004  2.557E-005 -2.218E-006 -1.143E-004  1.700E-005  1.181E-005 -8.526E-005  1.850E-005  7.994E-006 -8.580E-005  2.040E-005  4.146E-006 -8.653E-005  2.277E-005  7.994E-007 -8.745E-005  2.576E-005 -1.062E-006 -8.862E-005  2.088E-005  1.292E-005 -4.885E-005  2.176E-005  9.111E-006 -4.941E-005  2.287E-005  5.266E-006 -5.013E-005  2.427E-005  1.925E-006 -5.105E-005  2.602E-005  6.312E-008 -5.221E-005  2.637E-005  1.350E-005  2.688E-006  2.637E-005  9.695E-006  2.110E-006  2.637E-005  5.852E-006  1.383E-006  2.638E-005  2.516E-006  4.675E-007  2.638E-005  6.592E-007 -6.850E-007  1.549E-005 -8.500E-005 -1.233E-004  1.647E-005 -8.701E-005 -1.236E-004  1.746E-005 -8.885E-005 -1.239E-004  1.869E-005 -9.093E-005 -1.243E-004  1.993E-005 -9.274E-005 -1.246E-004  2.148E-005 -9.464E-005 -1.251E-004  2.303E-005 -9.612E-005 -1.256E-004  2.498E-005 -9.739E-005 -1.262E-004  2.692E-005 -9.799E-005 -1.268E-004  1.688E-005 -8.438E-005 -1.091E-004  1.862E-005 -8.823E-005 -1.096E-004  2.081E-005 -9.212E-005 -1.104E-004  2.356E-005 -9.550E-005 -1.113E-004  2.701E-005 -9.737E-005 -1.125E-004  1.827E-005 -8.384E-005 -9.481E-005  1.902E-005 -8.585E-005 -9.509E-005  1.978E-005 -8.769E-005 -9.538E-005  2.074E-005 -8.977E-005 -9.574E-005  2.169E-005 -9.158E-005 -9.611E-005  2.290E-005 -9.348E-005 -9.658E-005  2.409E-005 -9.496E-005 -9.704E-005  2.560E-005 -9.622E-005 -9.763E-005  2.711E-005 -9.682E-005 -9.821E-005  2.023E-005 -8.320E-005 -7.463E-005  2.143E-005 -8.705E-005 -7.520E-005  2.294E-005 -9.093E-005 -7.593E-005  2.485E-005 -9.431E-005 -7.685E-005  2.723E-005 -9.617E-005 -7.802E-005  2.220E-005 -8.271E-005 -5.444E-005  2.264E-005 -8.471E-005 -5.472E-005  2.308E-005 -8.655E-005 -5.501E-005  2.364E-005 -8.863E-005 -5.537E-005  2.419E-005 -9.044E-005 -5.574E-005  2.490E-005 -9.234E-005 -5.620E-005  2.560E-005 -9.382E-005 -5.666E-005  2.648E-005 -9.507E-005 -5.725E-005  2.736E-005 -9.567E-005 -5.783E-005  2.497E-005 -8.225E-005 -2.587E-005  2.540E-005 -8.609E-005 -2.645E-005  2.596E-005 -8.998E-005 -2.718E-005  2.667E-005 -9.336E-005 -2.811E-005  2.755E-005 -9.520E-005 -2.927E-005  2.773E-005 -8.209E-005  2.698E-006  2.773E-005 -8.410E-005  2.406E-006  2.773E-005 -8.593E-005  2.115E-006  2.773E-005 -8.801E-005  1.750E-006  2.773E-005 -8.981E-005  1.385E-006  2.773E-005 -9.173E-005  9.205E-007  2.773E-005 -9.320E-005  4.573E-007  2.774E-005 -9.446E-005 -1.240E-007  2.774E-005 -9.502E-005 -7.045E-007  1.681E-005 -1.907E-004 -1.358E-004  1.878E-005 -1.946E-004 -1.364E-004  2.126E-005 -1.985E-004 -1.371E-004  2.438E-005 -2.019E-004 -1.381E-004  2.828E-005 -2.038E-004 -1.392E-004  1.960E-005 -1.896E-004 -1.044E-004  2.112E-005 -1.934E-004 -1.050E-004  2.304E-005 -1.973E-004 -1.058E-004  2.545E-005 -2.007E-004 -1.067E-004  2.847E-005 -2.026E-004 -1.079E-004  2.354E-005 -1.884E-004 -6.005E-005  2.443E-005 -1.923E-004 -6.064E-005  2.555E-005 -1.962E-004 -6.138E-005  2.696E-005 -1.996E-004 -6.231E-005  2.874E-005 -2.015E-004 -6.349E-005  2.909E-005 -1.879E-004  2.708E-006  2.910E-005 -1.917E-004  2.120E-006  2.910E-005 -1.956E-004  1.379E-006  2.911E-005 -1.990E-004  4.459E-007  2.911E-005 -2.009E-004 -7.280E-007  1.821E-005 -3.066E-004 -1.483E-004  1.920E-005 -3.086E-004 -1.486E-004  2.018E-005 -3.104E-004 -1.489E-004  2.142E-005 -3.125E-004 -1.493E-004  2.266E-005 -3.143E-004 -1.496E-004  2.422E-005 -3.162E-004 -1.501E-004  2.577E-005 -3.177E-004 -1.506E-004  2.772E-005 -3.190E-004 -1.512E-004  2.966E-005 -3.196E-004 -1.517E-004  1.960E-005 -3.059E-004 -1.312E-004  2.135E-005 -3.098E-004 -1.318E-004  2.355E-005 -3.137E-004 -1.325E-004  2.630E-005 -3.171E-004 -1.335E-004  2.975E-005 -3.190E-004 -1.346E-004  2.100E-005 -3.054E-004 -1.141E-004  2.176E-005 -3.074E-004 -1.144E-004  2.252E-005 -3.093E-004 -1.147E-004  2.348E-005 -3.113E-004 -1.150E-004  2.443E-005 -3.132E-004 -1.154E-004  2.563E-005 -3.151E-004 -1.159E-004  2.683E-005 -3.166E-004 -1.163E-004  2.834E-005 -3.178E-004 -1.169E-004  2.985E-005 -3.184E-004 -1.175E-004  2.297E-005 -3.048E-004 -8.986E-005  2.417E-005 -3.086E-004 -9.047E-005  2.568E-005 -3.125E-004 -9.122E-005  2.759E-005 -3.159E-004 -9.216E-005  2.998E-005 -3.178E-004 -9.334E-005  2.494E-005 -3.043E-004 -6.568E-005  2.538E-005 -3.063E-004 -6.598E-005  2.582E-005 -3.081E-004 -6.628E-005  2.638E-005 -3.102E-004 -6.666E-005  2.694E-005 -3.120E-004 -6.703E-005  2.764E-005 -3.139E-004 -6.750E-005  2.835E-005 -3.154E-004 -6.797E-005  2.923E-005 -3.167E-004 -6.856E-005  3.012E-005 -3.173E-004 -6.915E-005  2.772E-005 -3.038E-004 -3.148E-005  2.816E-005 -3.077E-004 -3.208E-005  2.871E-005 -3.115E-004 -3.283E-005  2.942E-005 -3.149E-004 -3.377E-005  3.031E-005 -3.168E-004 -3.495E-005  3.049E-005 -3.036E-004  2.717E-006  3.049E-005 -3.057E-004  2.419E-006  3.049E-005 -3.075E-004  2.124E-006  3.049E-005 -3.096E-004  1.749E-006  3.049E-005 -3.114E-004  1.376E-006  3.049E-005 -3.133E-004  9.039E-007  3.050E-005 -3.148E-004  4.340E-007  3.050E-005 -3.161E-004 -1.584E-007  3.050E-005 -3.166E-004 -7.505E-007  1.969E-005 -4.325E-004 -1.607E-004  2.165E-005 -4.363E-004 -1.613E-004  2.411E-005 -4.402E-004 -1.621E-004  2.719E-005 -4.436E-004 -1.630E-004  3.104E-005 -4.455E-004 -1.642E-004  2.246E-005 -4.313E-004 -1.236E-004  2.397E-005 -4.352E-004 -1.243E-004  2.587E-005 -4.390E-004 -1.250E-004  2.825E-005 -4.424E-004 -1.260E-004  3.124E-005 -4.443E-004 -1.272E-004  2.637E-005 -4.302E-004 -7.128E-005  2.725E-005 -4.340E-004 -7.190E-005  2.836E-005 -4.379E-004 -7.266E-005  2.976E-005 -4.413E-004 -7.360E-005  3.152E-005 -4.432E-004 -7.479E-005  3.188E-005 -4.296E-004  2.720E-006  3.189E-005 -4.335E-004  2.120E-006  3.189E-005 -4.373E-004  1.368E-006  3.190E-005 -4.407E-004  4.201E-007  3.191E-005 -4.426E-004 -7.688E-007  2.125E-005 -5.684E-004 -1.730E-004  2.222E-005 -5.704E-004 -1.733E-004  2.318E-005 -5.722E-004 -1.736E-004  2.440E-005 -5.743E-004 -1.740E-004  2.561E-005 -5.760E-004 -1.744E-004  2.713E-005 -5.779E-004 -1.749E-004  2.865E-005 -5.794E-004 -1.753E-004  3.056E-005 -5.806E-004 -1.759E-004  3.245E-005 -5.812E-004 -1.765E-004  2.262E-005 -5.678E-004 -1.531E-004  2.433E-005 -5.716E-004 -1.537E-004  2.648E-005 -5.754E-004 -1.545E-004  2.917E-005 -5.788E-004 -1.554E-004  3.255E-005 -5.806E-004 -1.566E-004  2.398E-005 -5.673E-004 -1.331E-004  2.473E-005 -5.693E-004 -1.335E-004  2.548E-005 -5.711E-004 -1.338E-004  2.641E-005 -5.731E-004 -1.342E-004  2.735E-005 -5.749E-004 -1.345E-004  2.853E-005 -5.768E-004 -1.350E-004  2.970E-005 -5.782E-004 -1.355E-004  3.117E-005 -5.795E-004 -1.361E-004  3.265E-005 -5.801E-004 -1.367E-004  2.592E-005 -5.667E-004 -1.050E-004  2.710E-005 -5.704E-004 -1.056E-004  2.858E-005 -5.743E-004 -1.064E-004  3.045E-005 -5.776E-004 -1.073E-004  3.278E-005 -5.795E-004 -1.085E-004  2.786E-005 -5.662E-004 -7.683E-005  2.829E-005 -5.681E-004 -7.715E-005  2.872E-005 -5.700E-004 -7.746E-005  2.927E-005 -5.720E-004 -7.784E-005  2.981E-005 -5.738E-004 -7.822E-005  3.051E-005 -5.757E-004 -7.870E-005  3.120E-005 -5.771E-004 -7.918E-005  3.206E-005 -5.784E-004 -7.977E-005  3.292E-005 -5.790E-004 -8.037E-005  3.059E-005 -5.657E-004 -3.705E-005  3.101E-005 -5.695E-004 -3.767E-005  3.156E-005 -5.733E-004 -3.843E-005  3.225E-005 -5.767E-004 -3.938E-005  3.312E-005 -5.785E-004 -4.058E-005  3.331E-005 -5.656E-004  2.719E-006  3.331E-005 -5.675E-004  2.418E-006  3.331E-005 -5.693E-004  2.116E-006  3.331E-005 -5.714E-004  1.735E-006  3.331E-005 -5.732E-004  1.354E-006  3.331E-005 -5.750E-004  8.803E-007  3.331E-005 -5.765E-004  4.061E-007  3.332E-005 -5.778E-004 -1.939E-007  3.332E-005 -5.783E-004 -7.932E-007  2.289E-005 -7.143E-004 -1.851E-004  2.478E-005 -7.180E-004 -1.857E-004  2.716E-005 -7.217E-004 -1.865E-004  3.013E-005 -7.250E-004 -1.874E-004  3.385E-005 -7.269E-004 -1.886E-004  2.557E-005 -7.131E-004 -1.425E-004  2.703E-005 -7.169E-004 -1.431E-004  2.887E-005 -7.206E-004 -1.439E-004  3.117E-005 -7.239E-004 -1.448E-004  3.405E-005 -7.258E-004 -1.460E-004  2.936E-005 -7.121E-004 -8.228E-005  3.021E-005 -7.158E-004 -8.292E-005  3.129E-005 -7.195E-004 -8.370E-005  3.264E-005 -7.228E-004 -8.465E-005  3.434E-005 -7.247E-004 -8.585E-005  3.470E-005 -7.115E-004  2.711E-006  3.471E-005 -7.152E-004  2.106E-006  3.472E-005 -7.190E-004  1.346E-006  3.473E-005 -7.222E-004  3.876E-007  3.473E-005 -7.241E-004 -8.126E-007  2.460E-005 -8.698E-004 -1.969E-004  2.552E-005 -8.717E-004 -1.973E-004  2.644E-005 -8.734E-004 -1.976E-004  2.760E-005 -8.754E-004 -1.980E-004  2.875E-005 -8.771E-004 -1.983E-004  3.020E-005 -8.789E-004 -1.988E-004  3.165E-005 -8.803E-004 -1.993E-004  3.346E-005 -8.815E-004 -1.998E-004  3.527E-005 -8.821E-004 -2.004E-004  2.590E-005 -8.692E-004 -1.742E-004  2.754E-005 -8.728E-004 -1.749E-004  2.958E-005 -8.765E-004 -1.757E-004  3.215E-005 -8.797E-004 -1.766E-004  3.537E-005 -8.815E-004 -1.778E-004  2.721E-005 -8.687E-004 -1.516E-004  2.792E-005 -8.706E-004 -1.519E-004  2.863E-005 -8.723E-004 -1.522E-004  2.953E-005 -8.743E-004 -1.526E-004  3.042E-005 -8.760E-004 -1.530E-004  3.154E-005 -8.778E-004 -1.535E-004  3.266E-005 -8.792E-004 -1.540E-004  3.406E-005 -8.804E-004 -1.546E-004  3.547E-005 -8.810E-004 -1.552E-004  2.907E-005 -8.681E-004 -1.196E-004  3.019E-005 -8.717E-004 -1.202E-004  3.160E-005 -8.754E-004 -1.210E-004  3.338E-005 -8.786E-004 -1.220E-004  3.561E-005 -8.804E-004 -1.232E-004  3.092E-005 -8.676E-004 -8.761E-005  3.133E-005 -8.695E-004 -8.795E-005  3.175E-005 -8.712E-004 -8.827E-005  3.226E-005 -8.732E-004 -8.866E-005  3.278E-005 -8.749E-004 -8.905E-005  3.345E-005 -8.767E-004 -8.953E-005  3.410E-005 -8.781E-004 -9.000E-005  3.492E-005 -8.793E-004 -9.060E-005  3.575E-005 -8.799E-004 -9.121E-005  3.353E-005 -8.672E-004 -4.245E-005  3.394E-005 -8.708E-004 -4.308E-005  3.446E-005 -8.745E-004 -4.385E-005  3.512E-005 -8.777E-004 -4.481E-005  3.595E-005 -8.795E-004 -4.602E-005  3.613E-005 -8.670E-004  2.696E-006  3.613E-005 -8.689E-004  2.393E-006  3.613E-005 -8.707E-004  2.093E-006  3.614E-005 -8.726E-004  1.711E-006  3.614E-005 -8.743E-004  1.330E-006  3.614E-005 -8.761E-004  8.501E-007  3.614E-005 -8.775E-004  3.712E-007  3.615E-005 -8.787E-004 -2.336E-007  3.615E-005 -8.793E-004 -8.370E-007  2.638E-005 -1.035E-003 -2.083E-004  2.816E-005 -1.038E-003 -2.090E-004  3.039E-005 -1.042E-003 -2.098E-004  3.318E-005 -1.045E-003 -2.107E-004  3.666E-005 -1.047E-003 -2.119E-004  2.891E-005 -1.034E-003 -1.604E-004  3.028E-005 -1.037E-003 -1.611E-004  3.201E-005 -1.041E-003 -1.619E-004  3.416E-005 -1.044E-003 -1.628E-004  3.687E-005 -1.046E-003 -1.640E-004  3.249E-005 -1.033E-003 -9.278E-005  3.329E-005 -1.036E-003 -9.344E-005  3.430E-005 -1.040E-003 -9.423E-005  3.557E-005 -1.043E-003 -9.518E-005  3.716E-005 -1.045E-003 -9.639E-005  3.753E-005 -1.032E-003  2.683E-006  3.754E-005 -1.036E-003  2.079E-006  3.755E-005 -1.039E-003  1.317E-006  3.756E-005 -1.042E-003  3.543E-007  3.756E-005 -1.044E-003 -8.543E-007  2.825E-005 -1.209E-003 -2.193E-004  2.910E-005 -1.211E-003 -2.197E-004  2.995E-005 -1.212E-003 -2.200E-004  3.101E-005 -1.214E-003 -2.204E-004  3.208E-005 -1.216E-003 -2.208E-004  3.341E-005 -1.217E-003 -2.212E-004  3.474E-005 -1.219E-003 -2.217E-004  3.641E-005 -1.220E-003 -2.223E-004  3.807E-005 -1.220E-003 -2.229E-004  2.946E-005 -1.208E-003 -1.941E-004  3.097E-005 -1.212E-003 -1.948E-004  3.285E-005 -1.215E-003 -1.956E-004  3.521E-005 -1.218E-003 -1.965E-004  3.817E-005 -1.220E-003 -1.977E-004  3.068E-005 -1.208E-003 -1.689E-004  3.134E-005 -1.210E-003 -1.692E-004  3.199E-005 -1.211E-003 -1.696E-004  3.281E-005 -1.213E-003 -1.700E-004  3.363E-005 -1.215E-003 -1.704E-004  3.466E-005 -1.216E-003 -1.708E-004  3.569E-005 -1.218E-003 -1.713E-004  3.698E-005 -1.219E-003 -1.719E-004  3.827E-005 -1.219E-003 -1.725E-004  3.240E-005 -1.207E-003 -1.333E-004  3.344E-005 -1.211E-003 -1.340E-004  3.474E-005 -1.214E-003 -1.348E-004  3.637E-005 -1.217E-003 -1.357E-004  3.842E-005 -1.219E-003 -1.369E-004  3.412E-005 -1.207E-003 -9.773E-005  3.450E-005 -1.209E-003 -9.808E-005  3.488E-005 -1.210E-003 -9.841E-005  3.536E-005 -1.212E-003 -9.881E-005  3.584E-005 -1.214E-003 -9.920E-005  3.644E-005 -1.215E-003 -9.968E-005  3.705E-005 -1.217E-003 -1.002E-004  3.781E-005 -1.218E-003 -1.008E-004  3.856E-005 -1.218E-003 -1.014E-004  3.655E-005 -1.206E-003 -4.751E-005  3.692E-005 -1.210E-003 -4.815E-005  3.740E-005 -1.213E-003 -4.894E-005  3.801E-005 -1.216E-003 -4.990E-005  3.877E-005 -1.218E-003 -5.111E-005  3.896E-005 -1.206E-003  2.676E-006  3.896E-005 -1.208E-003  2.373E-006  3.896E-005 -1.210E-003  2.069E-006  3.896E-005 -1.211E-003  1.685E-006  3.896E-005 -1.213E-003  1.303E-006  3.897E-005 -1.215E-003  8.187E-007  3.897E-005 -1.216E-003  3.358E-007  3.898E-005 -1.217E-003 -2.699E-007  3.898E-005 -1.218E-003 -8.755E-007  3.020E-005 -1.392E-003 -2.297E-004  3.181E-005 -1.395E-003 -2.305E-004  3.382E-005 -1.398E-003 -2.312E-004  3.633E-005 -1.401E-003 -2.321E-004  3.947E-005 -1.403E-003 -2.333E-004  3.251E-005 -1.391E-003 -1.769E-004  3.375E-005 -1.394E-003 -1.776E-004  3.530E-005 -1.397E-003 -1.784E-004  3.725E-005 -1.400E-003 -1.794E-004  3.968E-005 -1.402E-003 -1.806E-004  3.577E-005 -1.390E-003 -1.024E-004  3.650E-005 -1.393E-003 -1.031E-004  3.741E-005 -1.396E-003 -1.039E-004  3.855E-005 -1.399E-003 -1.049E-004  3.998E-005 -1.401E-003 -1.061E-004  4.036E-005 -1.389E-003  2.663E-006  4.037E-005 -1.392E-003  2.056E-006  4.038E-005 -1.396E-003  1.290E-006  4.039E-005 -1.399E-003  3.254E-007  4.040E-005 -1.400E-003 -8.945E-007  3.225E-005 -1.583E-003 -2.396E-004  3.300E-005 -1.584E-003 -2.400E-004  3.374E-005 -1.586E-003 -2.403E-004  3.468E-005 -1.587E-003 -2.407E-004  3.562E-005 -1.589E-003 -2.411E-004  3.679E-005 -1.590E-003 -2.415E-004  3.796E-005 -1.591E-003 -2.420E-004  3.943E-005 -1.592E-003 -2.425E-004  4.088E-005 -1.593E-003 -2.431E-004  3.333E-005 -1.582E-003 -2.120E-004  3.466E-005 -1.585E-003 -2.128E-004  3.632E-005 -1.588E-003 -2.135E-004  3.839E-005 -1.591E-003 -2.145E-004  4.099E-005 -1.593E-003 -2.156E-004  3.442E-005 -1.582E-003 -1.845E-004  3.499E-005 -1.583E-003 -1.849E-004  3.557E-005 -1.585E-003 -1.852E-004  3.630E-005 -1.586E-003 -1.856E-004  3.702E-005 -1.588E-003 -1.860E-004  3.793E-005 -1.589E-003 -1.865E-004  3.883E-005 -1.590E-003 -1.870E-004  3.996E-005 -1.592E-003 -1.875E-004  4.109E-005 -1.592E-003 -1.881E-004  3.596E-005 -1.581E-003 -1.456E-004  3.686E-005 -1.584E-003 -1.464E-004  3.801E-005 -1.587E-003 -1.472E-004  3.945E-005 -1.590E-003 -1.481E-004  4.124E-005 -1.592E-003 -1.493E-004  3.749E-005 -1.581E-003 -1.068E-004  3.783E-005 -1.582E-003 -1.072E-004  3.816E-005 -1.584E-003 -1.076E-004  3.858E-005 -1.585E-003 -1.080E-004  3.900E-005 -1.587E-003 -1.084E-004  3.953E-005 -1.588E-003 -1.088E-004  4.007E-005 -1.590E-003 -1.093E-004  4.073E-005 -1.591E-003 -1.099E-004  4.139E-005 -1.591E-003 -1.105E-004  3.966E-005 -1.580E-003 -5.207E-005  3.998E-005 -1.583E-003 -5.273E-005  4.040E-005 -1.587E-003 -5.352E-005  4.094E-005 -1.589E-003 -5.449E-005  4.161E-005 -1.591E-003 -5.570E-005  4.180E-005 -1.580E-003  2.658E-006  4.181E-005 -1.582E-003  2.353E-006  4.181E-005 -1.583E-003  2.048E-006  4.181E-005 -1.585E-003  1.664E-006  4.181E-005 -1.586E-003  1.277E-006  4.181E-005 -1.588E-003  7.936E-007  4.181E-005 -1.589E-003  3.082E-007  4.182E-005 -1.590E-003 -3.009E-007  4.182E-005 -1.591E-003 -9.066E-007  3.440E-005 -1.781E-003 -2.486E-004  3.577E-005 -1.784E-003 -2.494E-004  3.748E-005 -1.787E-003 -2.501E-004  3.963E-005 -1.790E-003 -2.510E-004  4.229E-005 -1.791E-003 -2.522E-004  3.640E-005 -1.781E-003 -1.915E-004  3.746E-005 -1.783E-003 -1.922E-004  3.878E-005 -1.786E-003 -1.930E-004  4.044E-005 -1.789E-003 -1.940E-004  4.251E-005 -1.790E-003 -1.951E-004  3.923E-005 -1.780E-003 -1.109E-004  3.985E-005 -1.783E-003 -1.116E-004  4.063E-005 -1.785E-003 -1.125E-004  4.160E-005 -1.788E-003 -1.134E-004  4.282E-005 -1.789E-003 -1.146E-004  4.321E-005 -1.779E-003  2.649E-006  4.322E-005 -1.782E-003  2.039E-006  4.323E-005 -1.785E-003  1.270E-006  4.324E-005 -1.787E-003  2.999E-007  4.325E-005 -1.789E-003 -9.210E-007  3.664E-005 -1.987E-003 -2.569E-004  3.725E-005 -1.989E-003 -2.573E-004  3.787E-005 -1.990E-003 -2.577E-004  3.864E-005 -1.991E-003 -2.581E-004  3.941E-005 -1.992E-003 -2.584E-004  4.037E-005 -1.994E-003 -2.589E-004  4.133E-005 -1.995E-003 -2.593E-004  4.253E-005 -1.996E-003 -2.599E-004  4.372E-005 -1.996E-003 -2.605E-004  3.755E-005 -1.987E-003 -2.273E-004  3.864E-005 -1.989E-003 -2.281E-004  4.000E-005 -1.992E-003 -2.289E-004  4.171E-005 -1.994E-003 -2.298E-004  4.383E-005 -1.996E-003 -2.310E-004  3.846E-005 -1.986E-003 -1.978E-004  3.893E-005 -1.988E-003 -1.982E-004  3.941E-005 -1.989E-003 -1.986E-004  4.000E-005 -1.990E-003 -1.990E-004  4.060E-005 -1.992E-003 -1.994E-004  4.134E-005 -1.993E-003 -1.999E-004  4.208E-005 -1.994E-003 -2.003E-004  4.301E-005 -1.995E-003 -2.009E-004  4.394E-005 -1.995E-003 -2.015E-004  3.976E-005 -1.986E-003 -1.562E-004  4.050E-005 -1.989E-003 -1.569E-004  4.144E-005 -1.991E-003 -1.578E-004  4.262E-005 -1.994E-003 -1.587E-004  4.409E-005 -1.995E-003 -1.599E-004  4.105E-005 -1.986E-003 -1.146E-004  4.132E-005 -1.987E-003 -1.150E-004  4.159E-005 -1.988E-003 -1.154E-004  4.193E-005 -1.990E-003 -1.158E-004  4.228E-005 -1.991E-003 -1.162E-004  4.272E-005 -1.992E-003 -1.167E-004  4.315E-005 -1.993E-003 -1.171E-004  4.369E-005 -1.994E-003 -1.177E-004  4.424E-005 -1.995E-003 -1.183E-004  4.286E-005 -1.985E-003 -5.597E-005  4.313E-005 -1.988E-003 -5.664E-005  4.347E-005 -1.991E-003 -5.744E-005  4.391E-005 -1.993E-003 -5.841E-005  4.446E-005 -1.994E-003 -5.963E-005  4.466E-005 -1.985E-003  2.642E-006  4.466E-005 -1.987E-003  2.338E-006  4.466E-005 -1.988E-003  2.032E-006  4.466E-005 -1.989E-003  1.647E-006  4.466E-005 -1.990E-003  1.263E-006  4.466E-005 -1.992E-003  7.773E-007  4.467E-005 -1.993E-003  2.913E-007  4.467E-005 -1.994E-003 -3.190E-007  4.467E-005 -1.994E-003 -9.342E-007  3.897E-005 -2.199E-003 -2.641E-004  4.005E-005 -2.202E-003 -2.649E-004  4.139E-005 -2.204E-003 -2.657E-004  4.306E-005 -2.206E-003 -2.666E-004  4.514E-005 -2.207E-003 -2.677E-004  4.059E-005 -2.199E-003 -2.034E-004  4.142E-005 -2.201E-003 -2.042E-004  4.245E-005 -2.203E-003 -2.050E-004  4.375E-005 -2.205E-003 -2.060E-004  4.536E-005 -2.207E-003 -2.071E-004  4.287E-005 -2.198E-003 -1.179E-004  4.335E-005 -2.200E-003 -1.186E-004  4.396E-005 -2.203E-003 -1.195E-004  4.472E-005 -2.205E-003 -1.204E-004  4.567E-005 -2.206E-003 -1.216E-004  4.608E-005 -2.198E-003  2.640E-006  4.609E-005 -2.200E-003  2.029E-006  4.610E-005 -2.202E-003  1.258E-006  4.610E-005 -2.205E-003  2.832E-007  4.611E-005 -2.206E-003 -9.388E-007  4.140E-005 -2.417E-003 -2.704E-004  4.185E-005 -2.418E-003 -2.709E-004  4.230E-005 -2.419E-003 -2.712E-004  4.286E-005 -2.420E-003 -2.716E-004  4.342E-005 -2.421E-003 -2.720E-004  4.413E-005 -2.422E-003 -2.724E-004  4.483E-005 -2.423E-003 -2.729E-004  4.571E-005 -2.424E-003 -2.734E-004  4.657E-005 -2.424E-003 -2.740E-004  4.210E-005 -2.417E-003 -2.393E-004  4.289E-005 -2.419E-003 -2.401E-004  4.389E-005 -2.421E-003 -2.409E-004  4.513E-005 -2.423E-003 -2.418E-004  4.668E-005 -2.424E-003 -2.430E-004  4.280E-005 -2.417E-003 -2.082E-004  4.314E-005 -2.418E-003 -2.086E-004  4.349E-005 -2.419E-003 -2.090E-004  4.392E-005 -2.420E-003 -2.095E-004  4.435E-005 -2.421E-003 -2.098E-004  4.490E-005 -2.422E-003 -2.103E-004  4.544E-005 -2.423E-003 -2.108E-004  4.612E-005 -2.423E-003 -2.114E-004  4.679E-005 -2.424E-003 -2.120E-004  4.379E-005 -2.416E-003 -1.644E-004  4.433E-005 -2.418E-003 -1.652E-004  4.501E-005 -2.420E-003 -1.660E-004  4.587E-005 -2.422E-003 -1.670E-004  4.695E-005 -2.423E-003 -1.682E-004  4.478E-005 -2.416E-003 -1.207E-004  4.497E-005 -2.417E-003 -1.211E-004  4.517E-005 -2.418E-003 -1.214E-004  4.542E-005 -2.419E-003 -1.219E-004  4.567E-005 -2.420E-003 -1.223E-004  4.599E-005 -2.421E-003 -1.228E-004  4.631E-005 -2.422E-003 -1.232E-004  4.671E-005 -2.423E-003 -1.238E-004  4.710E-005 -2.423E-003 -1.244E-004  4.616E-005 -2.416E-003 -5.899E-005  4.635E-005 -2.418E-003 -5.968E-005  4.660E-005 -2.420E-003 -6.049E-005  4.692E-005 -2.422E-003 -6.146E-005  4.732E-005 -2.423E-003 -6.268E-005  4.753E-005 -2.416E-003  2.640E-006  4.753E-005 -2.417E-003  2.332E-006  4.753E-005 -2.418E-003  2.024E-006  4.753E-005 -2.419E-003  1.639E-006  4.753E-005 -2.420E-003  1.254E-006  4.753E-005 -2.421E-003  7.675E-007  4.754E-005 -2.422E-003  2.810E-007  4.754E-005 -2.422E-003 -3.343E-007  4.754E-005 -2.423E-003 -9.470E-007  4.392E-005 -2.640E-003 -2.754E-004  4.462E-005 -2.641E-003 -2.763E-004  4.550E-005 -2.643E-003 -2.770E-004  4.661E-005 -2.645E-003 -2.779E-004  4.800E-005 -2.646E-003 -2.791E-004  4.506E-005 -2.639E-003 -2.121E-004  4.560E-005 -2.641E-003 -2.129E-004  4.628E-005 -2.643E-003 -2.138E-004  4.714E-005 -2.644E-003 -2.147E-004  4.823E-005 -2.645E-003 -2.159E-004  4.668E-005 -2.639E-003 -1.230E-004  4.700E-005 -2.641E-003 -1.237E-004  4.740E-005 -2.642E-003 -1.246E-004  4.790E-005 -2.644E-003 -1.255E-004  4.854E-005 -2.645E-003 -1.267E-004  4.895E-005 -2.639E-003  2.639E-006  4.896E-005 -2.640E-003  2.022E-006  4.897E-005 -2.642E-003  1.247E-006  4.898E-005 -2.644E-003  2.757E-007  4.898E-005 -2.645E-003 -9.502E-007  4.646E-005 -2.866E-003 -2.793E-004  4.670E-005 -2.867E-003 -2.797E-004  4.695E-005 -2.867E-003 -2.801E-004  4.726E-005 -2.868E-003 -2.805E-004  4.757E-005 -2.869E-003 -2.809E-004  4.797E-005 -2.869E-003 -2.813E-004  4.838E-005 -2.870E-003 -2.818E-004  4.891E-005 -2.871E-003 -2.823E-004  4.943E-005 -2.871E-003 -2.829E-004  4.692E-005 -2.866E-003 -2.471E-004  4.734E-005 -2.867E-003 -2.480E-004  4.789E-005 -2.869E-003 -2.488E-004  4.861E-005 -2.870E-003 -2.497E-004  4.955E-005 -2.871E-003 -2.509E-004  4.737E-005 -2.866E-003 -2.150E-004  4.756E-005 -2.866E-003 -2.155E-004  4.774E-005 -2.867E-003 -2.159E-004  4.798E-005 -2.868E-003 -2.163E-004  4.822E-005 -2.868E-003 -2.167E-004  4.853E-005 -2.869E-003 -2.172E-004  4.884E-005 -2.870E-003 -2.176E-004  4.925E-005 -2.870E-003 -2.182E-004  4.966E-005 -2.871E-003 -2.188E-004  4.802E-005 -2.866E-003 -1.698E-004  4.830E-005 -2.867E-003 -1.706E-004  4.867E-005 -2.868E-003 -1.714E-004  4.917E-005 -2.870E-003 -1.724E-004  4.982E-005 -2.871E-003 -1.736E-004  4.866E-005 -2.865E-003 -1.247E-004  4.876E-005 -2.866E-003 -1.251E-004  4.886E-005 -2.867E-003 -1.254E-004  4.899E-005 -2.867E-003 -1.259E-004  4.913E-005 -2.868E-003 -1.263E-004  4.931E-005 -2.869E-003 -1.268E-004  4.950E-005 -2.869E-003 -1.272E-004  4.974E-005 -2.870E-003 -1.278E-004  4.997E-005 -2.870E-003 -1.285E-004  4.955E-005 -2.865E-003 -6.097E-005  4.964E-005 -2.867E-003 -6.167E-005  4.977E-005 -2.868E-003 -6.248E-005  4.996E-005 -2.869E-003 -6.346E-005  5.020E-005 -2.870E-003 -6.468E-005  5.041E-005 -2.865E-003  2.638E-006  5.041E-005 -2.866E-003  2.328E-006  5.041E-005 -2.866E-003  2.019E-006  5.041E-005 -2.867E-003  1.632E-006  5.041E-005 -2.868E-003  1.244E-006  5.041E-005 -2.869E-003  7.589E-007  5.041E-005 -2.869E-003  2.725E-007  5.042E-005 -2.870E-003 -3.419E-007  5.042E-005 -2.870E-003 -9.560E-007  4.894E-005 -3.095E-003 -2.816E-004  4.921E-005 -3.096E-003 -2.825E-004  4.958E-005 -3.097E-003 -2.833E-004  5.012E-005 -3.098E-003 -2.842E-004  5.087E-005 -3.099E-003 -2.854E-004  4.962E-005 -3.095E-003 -2.168E-004  4.983E-005 -3.096E-003 -2.177E-004  5.011E-005 -3.097E-003 -2.185E-004  5.052E-005 -3.098E-003 -2.195E-004  5.110E-005 -3.099E-003 -2.207E-004  5.055E-005 -3.095E-003 -1.257E-004  5.068E-005 -3.095E-003 -1.264E-004  5.084E-005 -3.097E-003 -1.273E-004  5.108E-005 -3.098E-003 -1.283E-004  5.142E-005 -3.099E-003 -1.295E-004  5.183E-005 -3.094E-003  2.648E-006  5.184E-005 -3.095E-003  2.030E-006  5.185E-005 -3.097E-003  1.257E-006  5.186E-005 -3.098E-003  2.759E-007  5.186E-005 -3.099E-003 -9.577E-007  5.129E-005 -3.325E-003 -2.826E-004  5.129E-005 -3.325E-003 -2.830E-004  5.130E-005 -3.326E-003 -2.835E-004  5.133E-005 -3.326E-003 -2.839E-004  5.138E-005 -3.327E-003 -2.844E-004  5.152E-005 -3.327E-003 -2.849E-004  5.171E-005 -3.328E-003 -2.854E-004  5.201E-005 -3.328E-003 -2.860E-004  5.233E-005 -3.329E-003 -2.866E-004  5.158E-005 -3.325E-003 -2.500E-004  5.156E-005 -3.326E-003 -2.509E-004  5.163E-005 -3.327E-003 -2.518E-004  5.191E-005 -3.328E-003 -2.528E-004  5.244E-005 -3.329E-003 -2.540E-004  5.188E-005 -3.325E-003 -2.175E-004  5.185E-005 -3.325E-003 -2.179E-004  5.182E-005 -3.326E-003 -2.184E-004  5.183E-005 -3.326E-003 -2.188E-004  5.187E-005 -3.327E-003 -2.193E-004  5.197E-005 -3.327E-003 -2.198E-004  5.210E-005 -3.328E-003 -2.203E-004  5.231E-005 -3.328E-003 -2.209E-004  5.254E-005 -3.329E-003 -2.215E-004  5.225E-005 -3.325E-003 -1.717E-004  5.217E-005 -3.326E-003 -1.725E-004  5.219E-005 -3.327E-003 -1.735E-004  5.236E-005 -3.328E-003 -1.745E-004  5.270E-005 -3.329E-003 -1.757E-004  5.259E-005 -3.325E-003 -1.260E-004  5.254E-005 -3.325E-003 -1.265E-004  5.250E-005 -3.325E-003 -1.269E-004  5.249E-005 -3.326E-003 -1.273E-004  5.249E-005 -3.326E-003 -1.277E-004  5.255E-005 -3.327E-003 -1.283E-004  5.262E-005 -3.328E-003 -1.288E-004  5.273E-005 -3.328E-003 -1.294E-004  5.285E-005 -3.329E-003 -1.300E-004  5.297E-005 -3.325E-003 -6.163E-005  5.291E-005 -3.325E-003 -6.237E-005  5.290E-005 -3.326E-003 -6.321E-005  5.296E-005 -3.328E-003 -6.421E-005  5.308E-005 -3.329E-003 -6.544E-005  5.331E-005 -3.324E-003  2.653E-006  5.330E-005 -3.325E-003  2.335E-006  5.330E-005 -3.325E-003  2.024E-006  5.330E-005 -3.326E-003  1.636E-006  5.330E-005 -3.326E-003  1.251E-006  5.330E-005 -3.327E-003  7.617E-007  5.330E-005 -3.327E-003  2.745E-007  5.330E-005 -3.328E-003 -3.407E-007  5.330E-005 -3.328E-003 -9.556E-007
        </DataArray>
      </PointData>
      <CellData>
      </CellData>
      <Points>
        <DataArray type="Float32" NumberOfComponents="3" format="ascii">
  2.383E-015  1.835E-015  3.411E-015  4.275E-003  1.698E-015  2.670E-015  8.551E-003  1.231E-015  2.339E-015  1.394E-002  1.582E-015  2.678E-015  1.932E-002  1.111E-015  2.183E-015  2.611E-002  1.453E-015  2.617E-015  3.290E-002  9.977E-016  2.008E-015  4.145E-002  1.320E-015  2.497E-015  5.000E-002  6.700E-016  1.361E-015  1.825E-015  2.832E-003  2.171E-015  8.551E-003  2.832E-003  1.462E-015  1.932E-002  2.832E-003  1.325E-015  3.290E-002  2.832E-003  1.194E-015  5.000E-002  2.832E-003  8.026E-016  1.611E-015  5.664E-003  2.440E-015  4.275E-003  5.664E-003  1.826E-015  8.551E-003  5.664E-003  1.686E-015  1.394E-002  5.664E-003  1.864E-015  1.932E-002  5.664E-003  1.594E-015  2.611E-002  5.664E-003  1.854E-015  3.290E-002  5.664E-003  1.480E-015  4.145E-002  5.664E-003  1.797E-015  5.000E-002  5.664E-003  1.006E-015  1.839E-015  9.668E-003  2.420E-015  8.551E-003  9.668E-003  1.644E-015  1.932E-002  9.668E-003  1.511E-015  3.290E-002  9.668E-003  1.375E-015  5.000E-002  9.668E-003  9.277E-016  1.447E-015  1.367E-002  2.426E-015  4.275E-003  1.367E-002  1.671E-015  8.551E-003  1.367E-002  1.703E-015  1.394E-002  1.367E-002  1.758E-015  1.932E-002  1.367E-002  1.656E-015  2.611E-002  1.367E-002  1.807E-015  3.290E-002  1.367E-002  1.574E-015  4.145E-002  1.367E-002  1.809E-015  5.000E-002  1.367E-002  1.081E-015  1.750E-015  1.934E-002  2.581E-015  8.551E-003  1.934E-002  1.777E-015  1.932E-002  1.934E-002  1.669E-015  3.290E-002  1.934E-002  1.542E-015  5.000E-002  1.934E-002  1.047E-015  9.656E-016  2.500E-002  1.686E-015  4.275E-003  2.500E-002  1.123E-015  8.551E-003  2.500E-002  1.192E-015  1.394E-002  2.500E-002  1.195E-015  1.932E-002  2.500E-002  1.177E-015  2.611E-002  2.500E-002  1.245E-015  3.290E-002  2.500E-002  1.133E-015  4.145E-002  2.500E-002  1.265E-015  5.000E-002  2.500E-002  7.818E-016  4.405E-006  2.836E-006  2.001E-002  8.554E-003  4.050E-006  2.001E-002  1.933E-002  5.051E-006  2.001E-002  3.290E-002  5.709E-006  2.001E-002  5.000E-002  5.934E-006  2.001E-002  3.464E-006  5.666E-003  2.001E-002  8.553E-003  5.667E-003  2.000E-002  1.933E-002  5.668E-003  2.000E-002  3.290E-002  5.668E-003  2.000E-002  5.000E-002  5.669E-003  2.000E-002  2.097E-006  1.367E-002  2.000E-002  8.552E-003  1.368E-002  2.000E-002  1.933E-002  1.368E-002  2.000E-002  3.290E-002  1.368E-002  2.000E-002  5.000E-002  1.368E-002  2.000E-002  7.084E-008  2.500E-002  2.000E-002  8.551E-003  2.500E-002  2.000E-002  1.932E-002  2.500E-002  2.000E-002  3.290E-002  2.500E-002  2.000E-002  5.000E-002  2.500E-002  2.000E-002  5.303E-006  1.078E-005  4.001E-002  4.280E-003  1.165E-005  4.001E-002  8.555E-003  1.240E-005  4.001E-002  1.394E-002  1.319E-005  4.001E-002  1.933E-002  1.380E-005  4.001E-002  2.611E-002  1.441E-005  4.001E-002  3.290E-002  1.482E-005  4.001E-002  4.145E-002  1.513E-005  4.001E-002  5.000E-002  1.520E-005  4.001E-002  4.714E-006  2.842E-003  4.001E-002  8.555E-003  2.844E-003  4.001E-002  1.933E-002  2.845E-003  4.001E-002  3.290E-002  2.846E-003  4.001E-002  5.000E-002  2.847E-003  4.001E-002  4.133E-006  5.674E-003  4.001E-002  4.279E-003  5.675E-003  4.001E-002  8.554E-003  5.675E-003  4.001E-002  1.394E-002  5.676E-003  4.001E-002  1.933E-002  5.677E-003  4.001E-002  2.611E-002  5.677E-003  4.001E-002  3.290E-002  5.678E-003  4.001E-002  4.145E-002  5.678E-003  4.001E-002  5.000E-002  5.678E-003  4.001E-002  3.321E-006  9.678E-003  4.001E-002  8.554E-003  9.680E-003  4.001E-002  1.933E-002  9.681E-003  4.001E-002  3.290E-002  9.682E-003  4.001E-002  5.000E-002  9.682E-003  4.001E-002  2.499E-006  1.368E-002  4.001E-002  4.278E-003  1.368E-002  4.001E-002  8.553E-003  1.368E-002  4.001E-002  1.394E-002  1.368E-002  4.001E-002  1.933E-002  1.369E-002  4.001E-002  2.611E-002  1.369E-002  4.001E-002  3.290E-002  1.369E-002  4.001E-002  4.145E-002  1.369E-002  4.001E-002  5.000E-002  1.369E-002  4.001E-002  1.336E-006  1.935E-002  4.000E-002  8.552E-003  1.935E-002  4.000E-002  1.933E-002  1.935E-002  4.000E-002  3.290E-002  1.935E-002  4.000E-002  5.000E-002  1.935E-002  4.000E-002  1.600E-007  2.501E-002  4.000E-002  4.276E-003  2.501E-002  4.000E-002  8.551E-003  2.501E-002  4.000E-002  1.394E-002  2.501E-002  4.000E-002  1.932E-002  2.501E-002  4.000E-002  2.611E-002  2.501E-002  4.000E-002  3.290E-002  2.501E-002  4.000E-002  4.145E-002  2.501E-002  4.000E-002  5.000E-002  2.501E-002  4.000E-002  5.272E-006  2.530E-005  6.002E-002  8.555E-003  2.680E-005  6.002E-002  1.933E-002  2.823E-005  6.002E-002  3.290E-002  2.932E-005  6.002E-002  5.000E-002  2.974E-005  6.002E-002  4.152E-006  5.688E-003  6.002E-002  8.554E-003  5.690E-003  6.002E-002  1.933E-002  5.691E-003  6.002E-002  3.290E-002  5.692E-003  6.002E-002  5.000E-002  5.693E-003  6.002E-002  2.570E-006  1.370E-002  6.001E-002  8.553E-003  1.370E-002  6.001E-002  1.933E-002  1.370E-002  6.001E-002  3.290E-002  1.370E-002  6.001E-002  5.000E-002  1.370E-002  6.001E-002  3.231E-007  2.502E-002  6.000E-002  8.551E-003  2.503E-002  6.000E-002  1.932E-002  2.503E-002  6.000E-002  3.290E-002  2.503E-002  6.000E-002  5.000E-002  2.503E-002  6.000E-002  4.926E-006  4.473E-005  8.003E-002  4.280E-003  4.545E-005  8.003E-002  8.555E-003  4.609E-005  8.003E-002  1.394E-002  4.679E-005  8.003E-002  1.933E-002  4.738E-005  8.003E-002  2.611E-002  4.797E-005  8.003E-002  3.290E-002  4.839E-005  8.003E-002  4.145E-002  4.871E-005  8.003E-002  5.000E-002  4.877E-005  8.003E-002  4.435E-006  2.876E-003  8.002E-002  8.555E-003  2.878E-003  8.002E-002  1.933E-002  2.879E-003  8.002E-002  3.290E-002  2.880E-003  8.002E-002  5.000E-002  2.880E-003  8.002E-002  3.943E-006  5.708E-003  8.002E-002  4.279E-003  5.708E-003  8.002E-002  8.554E-003  5.709E-003  8.002E-002  1.394E-002  5.710E-003  8.002E-002  1.933E-002  5.710E-003  8.002E-002  2.611E-002  5.711E-003  8.002E-002  3.290E-002  5.711E-003  8.002E-002  4.145E-002  5.712E-003  8.002E-002  5.000E-002  5.712E-003  8.002E-002  3.244E-006  9.712E-003  8.002E-002  8.554E-003  9.714E-003  8.002E-002  1.933E-002  9.715E-003  8.002E-002  3.290E-002  9.716E-003  8.002E-002  5.000E-002  9.716E-003  8.002E-002  2.544E-006  1.372E-002  8.001E-002  4.278E-003  1.372E-002  8.001E-002  8.553E-003  1.372E-002  8.001E-002  1.394E-002  1.372E-002  8.001E-002  1.933E-002  1.372E-002  8.001E-002  2.611E-002  1.372E-002  8.001E-002  3.290E-002  1.372E-002  8.001E-002  4.145E-002  1.372E-002  8.001E-002  5.000E-002  1.372E-002  8.001E-002  1.547E-006  1.938E-002  8.001E-002  8.552E-003  1.938E-002  8.001E-002  1.933E-002  1.938E-002  8.001E-002  3.290E-002  1.938E-002  8.001E-002  5.000E-002  1.938E-002  8.001E-002  5.481E-007  2.504E-002  8.000E-002  4.276E-003  2.504E-002  8.000E-002  8.551E-003  2.504E-002  8.000E-002  1.394E-002  2.505E-002  8.000E-002  1.932E-002  2.505E-002  8.000E-002  2.611E-002  2.505E-002  8.000E-002  3.290E-002  2.505E-002  8.000E-002  4.145E-002  2.505E-002  8.000E-002  5.000E-002  2.505E-002  8.000E-002  4.530E-006  6.843E-005  1.000E-001  8.555E-003  6.956E-005  1.000E-001  1.933E-002  7.065E-005  1.000E-001  3.290E-002  7.152E-005  1.000E-001  5.000E-002  7.182E-005  1.000E-001  3.700E-006  5.732E-003  1.000E-001  8.554E-003  5.733E-003  1.000E-001  1.933E-002  5.734E-003  1.000E-001  3.290E-002  5.735E-003  1.000E-001  5.000E-002  5.735E-003  1.000E-001  2.526E-006  1.374E-002  1.000E-001  8.553E-003  1.374E-002  1.000E-001  1.933E-002  1.374E-002  1.000E-001  3.290E-002  1.374E-002  1.000E-001  5.000E-002  1.374E-002  1.000E-001  8.511E-007  2.507E-002  1.000E-001  8.552E-003  2.507E-002  1.000E-001  1.933E-002  2.507E-002  1.000E-001  3.290E-002  2.507E-002  1.000E-001  5.000E-002  2.507E-002  1.000E-001  4.132E-006  9.558E-005  1.200E-001  4.279E-003  9.605E-005  1.200E-001  8.554E-003  9.648E-005  1.200E-001  1.394E-002  9.695E-005  1.200E-001  1.933E-002  9.735E-005  1.200E-001  2.611E-002  9.774E-005  1.200E-001  3.290E-002  9.802E-005  1.200E-001  4.145E-002  9.822E-005  1.200E-001  5.000E-002  9.823E-005  1.200E-001  3.804E-006  2.927E-003  1.200E-001  8.554E-003  2.928E-003  1.200E-001  1.933E-002  2.929E-003  1.200E-001  3.290E-002  2.930E-003  1.200E-001  5.000E-002  2.930E-003  1.200E-001  3.476E-006  5.759E-003  1.200E-001  4.279E-003  5.759E-003  1.200E-001  8.554E-003  5.760E-003  1.200E-001  1.394E-002  5.760E-003  1.200E-001  1.933E-002  5.761E-003  1.200E-001  2.611E-002  5.761E-003  1.200E-001  3.290E-002  5.761E-003  1.200E-001  4.145E-002  5.761E-003  1.200E-001  5.000E-002  5.761E-003  1.200E-001  3.009E-006  9.763E-003  1.200E-001  8.554E-003  9.764E-003  1.200E-001  1.933E-002  9.765E-003  1.200E-001  3.290E-002  9.766E-003  1.200E-001  5.000E-002  9.766E-003  1.200E-001  2.541E-006  1.377E-002  1.200E-001  4.278E-003  1.377E-002  1.200E-001  8.553E-003  1.377E-002  1.200E-001  1.394E-002  1.377E-002  1.200E-001  1.933E-002  1.377E-002  1.200E-001  2.611E-002  1.377E-002  1.200E-001  3.290E-002  1.377E-002  1.200E-001  4.145E-002  1.377E-002  1.200E-001  5.000E-002  1.377E-002  1.200E-001  1.879E-006  1.943E-002  1.200E-001  8.553E-003  1.943E-002  1.200E-001  1.933E-002  1.943E-002  1.200E-001  3.290E-002  1.943E-002  1.200E-001  5.000E-002  1.943E-002  1.200E-001  1.215E-006  2.509E-002  1.200E-001  4.277E-003  2.510E-002  1.200E-001  8.552E-003  2.510E-002  1.200E-001  1.394E-002  2.510E-002  1.200E-001  1.933E-002  2.510E-002  1.200E-001  2.611E-002  2.510E-002  1.200E-001  3.290E-002  2.510E-002  1.200E-001  4.145E-002  2.510E-002  1.200E-001  5.000E-002  2.510E-002  1.200E-001  3.769E-006  1.255E-004  1.400E-001  8.554E-003  1.261E-004  1.400E-001  1.933E-002  1.268E-004  1.400E-001  3.290E-002  1.272E-004  1.400E-001  5.000E-002  1.273E-004  1.400E-001  3.290E-006  5.789E-003  1.400E-001  8.554E-003  5.789E-003  1.400E-001  1.933E-002  5.790E-003  1.400E-001  3.290E-002  5.791E-003  1.400E-001  5.000E-002  5.791E-003  1.400E-001  2.610E-006  1.380E-002  1.400E-001  8.553E-003  1.380E-002  1.400E-001  1.933E-002  1.380E-002  1.400E-001  3.290E-002  1.380E-002  1.400E-001  5.000E-002  1.380E-002  1.400E-001  1.642E-006  2.512E-002  1.400E-001  8.553E-003  2.513E-002  1.400E-001  1.933E-002  2.513E-002  1.400E-001  3.290E-002  2.513E-002  1.400E-001  5.000E-002  2.513E-002  1.400E-001  3.453E-006  1.575E-004  1.600E-001  4.279E-003  1.577E-004  1.600E-001  8.554E-003  1.579E-004  1.600E-001  1.394E-002  1.581E-004  1.600E-001  1.933E-002  1.582E-004  1.600E-001  2.611E-002  1.584E-004  1.600E-001  3.290E-002  1.585E-004  1.600E-001  4.145E-002  1.585E-004  1.600E-001  5.000E-002  1.585E-004  1.600E-001  3.305E-006  2.989E-003  1.600E-001  8.554E-003  2.990E-003  1.600E-001  1.933E-002  2.990E-003  1.600E-001  3.290E-002  2.990E-003  1.600E-001  5.000E-002  2.990E-003  1.600E-001  3.157E-006  5.821E-003  1.600E-001  4.279E-003  5.821E-003  1.600E-001  8.554E-003  5.821E-003  1.600E-001  1.394E-002  5.821E-003  1.600E-001  1.933E-002  5.822E-003  1.600E-001  2.611E-002  5.822E-003  1.600E-001  3.290E-002  5.822E-003  1.600E-001  4.145E-002  5.822E-003  1.600E-001  5.000E-002  5.822E-003  1.600E-001  2.947E-006  9.825E-003  1.600E-001  8.554E-003  9.826E-003  1.600E-001  1.933E-002  9.826E-003  1.600E-001  3.290E-002  9.826E-003  1.600E-001  5.000E-002  9.826E-003  1.600E-001  2.736E-006  1.383E-002  1.600E-001  4.278E-003  1.383E-002  1.600E-001  8.554E-003  1.383E-002  1.600E-001  1.394E-002  1.383E-002  1.600E-001  1.933E-002  1.383E-002  1.600E-001  2.611E-002  1.383E-002  1.600E-001  3.290E-002  1.383E-002  1.600E-001  4.145E-002  1.383E-002  1.600E-001  5.000E-002  1.383E-002  1.600E-001  2.435E-006  1.949E-002  1.600E-001  8.553E-003  1.949E-002  1.600E-001  1.933E-002  1.949E-002  1.600E-001  3.290E-002  1.949E-002  1.600E-001  5.000E-002  1.949E-002  1.600E-001  2.133E-006  2.516E-002  1.600E-001  4.278E-003  2.516E-002  1.600E-001  8.553E-003  2.516E-002  1.600E-001  1.394E-002  2.516E-002  1.600E-001  1.933E-002  2.516E-002  1.600E-001  2.611E-002  2.516E-002  1.600E-001  3.290E-002  2.516E-002  1.600E-001  4.145E-002  2.516E-002  1.600E-001  5.000E-002  2.516E-002  1.600E-001  3.195E-006  1.908E-004  1.800E-001  8.554E-003  1.910E-004  1.800E-001  1.933E-002  1.911E-004  1.800E-001  3.290E-002  1.911E-004  1.800E-001  5.000E-002  1.910E-004  1.800E-001  3.082E-006  5.854E-003  1.800E-001  8.554E-003  5.854E-003  1.800E-001  1.933E-002  5.855E-003  1.800E-001  3.290E-002  5.855E-003  1.800E-001  5.000E-002  5.854E-003  1.800E-001  2.919E-006  1.386E-002  1.800E-001  8.554E-003  1.386E-002  1.800E-001  1.933E-002  1.386E-002  1.800E-001  3.290E-002  1.386E-002  1.800E-001  5.000E-002  1.386E-002  1.800E-001  2.682E-006  2.519E-002  1.800E-001  8.554E-003  2.519E-002  1.800E-001  1.933E-002  2.519E-002  1.800E-001  3.290E-002  2.519E-002  1.800E-001  5.000E-002  2.519E-002  1.800E-001  2.999E-006  2.248E-004  2.000E-001  4.278E-003  2.248E-004  2.000E-001  8.554E-003  2.247E-004  2.000E-001  1.394E-002  2.247E-004  2.000E-001  1.933E-002  2.246E-004  2.000E-001  2.611E-002  2.245E-004  2.000E-001  3.290E-002  2.244E-004  2.000E-001  4.145E-002  2.243E-004  2.000E-001  5.000E-002  2.242E-004  2.000E-001  3.034E-006  3.057E-003  2.000E-001  8.554E-003  3.056E-003  2.000E-001  1.933E-002  3.056E-003  2.000E-001  3.290E-002  3.056E-003  2.000E-001  5.000E-002  3.056E-003  2.000E-001  3.069E-006  5.888E-003  2.000E-001  4.279E-003  5.888E-003  2.000E-001  8.554E-003  5.888E-003  2.000E-001  1.394E-002  5.888E-003  2.000E-001  1.933E-002  5.888E-003  2.000E-001  2.611E-002  5.888E-003  2.000E-001  3.290E-002  5.888E-003  2.000E-001  4.145E-002  5.888E-003  2.000E-001  5.000E-002  5.888E-003  2.000E-001  3.118E-006  9.893E-003  2.000E-001  8.554E-003  9.893E-003  2.000E-001  1.933E-002  9.893E-003  2.000E-001  3.290E-002  9.893E-003  2.000E-001  5.000E-002  9.892E-003  2.000E-001  3.165E-006  1.390E-002  2.000E-001  4.279E-003  1.390E-002  2.000E-001  8.554E-003  1.390E-002  2.000E-001  1.394E-002  1.390E-002  2.000E-001  1.933E-002  1.390E-002  2.000E-001  2.611E-002  1.390E-002  2.000E-001  3.290E-002  1.390E-002  2.000E-001  4.145E-002  1.390E-002  2.000E-001  5.000E-002  1.390E-002  2.000E-001  3.229E-006  1.956E-002  2.000E-001  8.554E-003  1.956E-002  2.000E-001  1.933E-002  1.956E-002  2.000E-001  3.290E-002  1.956E-002  2.000E-001  5.000E-002  1.956E-002  2.000E-001  3.291E-006  2.522E-002  2.000E-001  4.279E-003  2.522E-002  2.000E-001  8.554E-003  2.522E-002  2.000E-001  1.394E-002  2.522E-002  2.000E-001  1.933E-002  2.522E-002  2.000E-001  2.611E-002  2.522E-002  2.000E-001  3.290E-002  2.522E-002  2.000E-001  4.145E-002  2.522E-002  2.000E-001  5.000E-002  2.522E-002  2.000E-001  2.870E-006  2.589E-004  2.200E-001  8.554E-003  2.585E-004  2.200E-001  1.933E-002  2.581E-004  2.200E-001  3.290E-002  2.578E-004  2.200E-001  5.000E-002  2.574E-004  2.200E-001  3.120E-006  5.922E-003  2.200E-001  8.554E-003  5.922E-003  2.200E-001  1.933E-002  5.922E-003  2.200E-001  3.290E-002  5.921E-003  2.200E-001  5.000E-002  5.921E-003  2.200E-001  3.470E-006  1.393E-002  2.200E-001  8.554E-003  1.393E-002  2.200E-001  1.933E-002  1.393E-002  2.200E-001  3.290E-002  1.393E-002  2.200E-001  5.000E-002  1.393E-002  2.200E-001  3.961E-006  2.526E-002  2.200E-001  8.555E-003  2.526E-002  2.200E-001  1.933E-002  2.526E-002  2.200E-001  3.290E-002  2.526E-002  2.200E-001  5.000E-002  2.526E-002  2.200E-001  2.807E-006  2.923E-004  2.400E-001  4.278E-003  2.920E-004  2.400E-001  8.554E-003  2.917E-004  2.400E-001  1.394E-002  2.913E-004  2.400E-001  1.933E-002  2.910E-004  2.400E-001  2.611E-002  2.907E-004  2.400E-001  3.290E-002  2.904E-004  2.400E-001  4.145E-002  2.902E-004  2.400E-001  5.000E-002  2.900E-004  2.400E-001  3.022E-006  3.124E-003  2.400E-001  8.554E-003  3.123E-003  2.400E-001  1.933E-002  3.123E-003  2.400E-001  3.290E-002  3.122E-003  2.400E-001  5.000E-002  3.122E-003  2.400E-001  3.237E-006  5.956E-003  2.400E-001  4.279E-003  5.956E-003  2.400E-001  8.554E-003  5.955E-003  2.400E-001  1.394E-002  5.955E-003  2.400E-001  1.933E-002  5.955E-003  2.400E-001  2.612E-002  5.954E-003  2.400E-001  3.290E-002  5.954E-003  2.400E-001  4.145E-002  5.954E-003  2.400E-001  5.000E-002  5.954E-003  2.400E-001  3.540E-006  9.961E-003  2.400E-001  8.555E-003  9.960E-003  2.400E-001  1.933E-002  9.959E-003  2.400E-001  3.290E-002  9.959E-003  2.400E-001  5.000E-002  9.958E-003  2.400E-001  3.843E-006  1.397E-002  2.400E-001  4.279E-003  1.397E-002  2.400E-001  8.555E-003  1.396E-002  2.400E-001  1.394E-002  1.396E-002  2.400E-001  1.933E-002  1.396E-002  2.400E-001  2.612E-002  1.396E-002  2.400E-001  3.290E-002  1.396E-002  2.400E-001  4.145E-002  1.396E-002  2.400E-001  5.000E-002  1.396E-002  2.400E-001  4.266E-006  1.963E-002  2.400E-001  8.555E-003  1.963E-002  2.400E-001  1.933E-002  1.963E-002  2.400E-001  3.290E-002  1.963E-002  2.400E-001  5.000E-002  1.963E-002  2.400E-001  4.687E-006  2.529E-002  2.400E-001  4.280E-003  2.529E-002  2.400E-001  8.556E-003  2.529E-002  2.400E-001  1.394E-002  2.529E-002  2.400E-001  1.933E-002  2.529E-002  2.400E-001  2.612E-002  2.529E-002  2.400E-001  3.290E-002  2.529E-002  2.400E-001  4.145E-002  2.529E-002  2.400E-001  5.000E-002  2.529E-002  2.400E-001  2.813E-006  3.243E-004  2.600E-001  8.554E-003  3.235E-004  2.600E-001  1.933E-002  3.226E-004  2.600E-001  3.290E-002  3.218E-004  2.600E-001  5.001E-002  3.212E-004  2.600E-001  3.419E-006  5.988E-003  2.600E-001  8.555E-003  5.987E-003  2.600E-001  1.933E-002  5.986E-003  2.600E-001  3.290E-002  5.986E-003  2.600E-001  5.001E-002  5.985E-003  2.600E-001  4.273E-006  1.400E-002  2.600E-001  8.555E-003  1.400E-002  2.600E-001  1.933E-002  1.400E-002  2.600E-001  3.290E-002  1.400E-002  2.600E-001  5.001E-002  1.399E-002  2.600E-001  5.476E-006  2.532E-002  2.600E-001  8.556E-003  2.532E-002  2.600E-001  1.933E-002  2.532E-002  2.600E-001  3.290E-002  2.532E-002  2.600E-001  5.001E-002  2.532E-002  2.600E-001  2.889E-006  3.544E-004  2.800E-001  4.279E-003  3.538E-004  2.800E-001  8.554E-003  3.533E-004  2.800E-001  1.394E-002  3.527E-004  2.800E-001  1.933E-002  3.522E-004  2.800E-001  2.612E-002  3.516E-004  2.800E-001  3.290E-002  3.512E-004  2.800E-001  4.145E-002  3.507E-004  2.800E-001  5.001E-002  3.505E-004  2.800E-001  3.279E-006  3.186E-003  2.800E-001  8.555E-003  3.185E-003  2.800E-001  1.933E-002  3.184E-003  2.800E-001  3.290E-002  3.183E-003  2.800E-001  5.001E-002  3.182E-003  2.800E-001  3.669E-006  6.018E-003  2.800E-001  4.279E-003  6.018E-003  2.800E-001  8.555E-003  6.017E-003  2.800E-001  1.394E-002  6.017E-003  2.800E-001  1.933E-002  6.016E-003  2.800E-001  2.612E-002  6.015E-003  2.800E-001  3.290E-002  6.015E-003  2.800E-001  4.145E-002  6.015E-003  2.800E-001  5.001E-002  6.014E-003  2.800E-001  4.221E-006  1.002E-002  2.800E-001  8.555E-003  1.002E-002  2.800E-001  1.933E-002  1.002E-002  2.800E-001  3.290E-002  1.002E-002  2.800E-001  5.001E-002  1.002E-002  2.800E-001  4.771E-006  1.403E-002  2.800E-001  4.280E-003  1.403E-002  2.800E-001  8.556E-003  1.403E-002  2.800E-001  1.394E-002  1.403E-002  2.800E-001  1.933E-002  1.403E-002  2.800E-001  2.612E-002  1.403E-002  2.800E-001  3.290E-002  1.402E-002  2.800E-001  4.145E-002  1.402E-002  2.800E-001  5.001E-002  1.402E-002  2.800E-001  5.544E-006  1.969E-002  2.800E-001  8.557E-003  1.969E-002  2.800E-001  1.933E-002  1.969E-002  2.800E-001  3.290E-002  1.969E-002  2.800E-001  5.001E-002  1.969E-002  2.800E-001  6.314E-006  2.536E-002  2.800E-001  4.282E-003  2.535E-002  2.800E-001  8.557E-003  2.535E-002  2.800E-001  1.394E-002  2.535E-002  2.800E-001  1.933E-002  2.535E-002  2.800E-001  2.612E-002  2.535E-002  2.800E-001  3.290E-002  2.535E-002  2.800E-001  4.146E-002  2.535E-002  2.800E-001  5.001E-002  2.535E-002  2.800E-001  3.035E-006  3.818E-004  3.000E-001  8.555E-003  3.805E-004  3.000E-001  1.933E-002  3.791E-004  3.000E-001  3.290E-002  3.779E-004  3.000E-001  5.001E-002  3.772E-004  3.000E-001  3.984E-006  6.046E-003  3.000E-001  8.555E-003  6.044E-003  3.000E-001  1.933E-002  6.043E-003  3.000E-001  3.290E-002  6.042E-003  3.000E-001  5.001E-002  6.041E-003  3.000E-001  5.323E-006  1.406E-002  3.000E-001  8.557E-003  1.405E-002  3.000E-001  1.933E-002  1.405E-002  3.000E-001  3.290E-002  1.405E-002  3.000E-001  5.001E-002  1.405E-002  3.000E-001  7.214E-006  2.538E-002  3.000E-001  8.558E-003  2.538E-002  3.000E-001  1.933E-002  2.538E-002  3.000E-001  3.291E-002  2.538E-002  3.000E-001  5.001E-002  2.538E-002  3.000E-001  3.250E-006  4.060E-004  3.200E-001  4.279E-003  4.052E-004  3.200E-001  8.555E-003  4.044E-004  3.200E-001  1.394E-002  4.036E-004  3.200E-001  1.933E-002  4.029E-004  3.200E-001  2.612E-002  4.021E-004  3.200E-001  3.290E-002  4.014E-004  3.200E-001  4.146E-002  4.009E-004  3.200E-001  5.001E-002  4.006E-004  3.200E-001  3.808E-006  3.238E-003  3.200E-001  8.555E-003  3.236E-003  3.200E-001  1.933E-002  3.235E-003  3.200E-001  3.290E-002  3.233E-003  3.200E-001  5.001E-002  3.233E-003  3.200E-001  4.366E-006  6.070E-003  3.200E-001  4.280E-003  6.069E-003  3.200E-001  8.556E-003  6.068E-003  3.200E-001  1.394E-002  6.068E-003  3.200E-001  1.933E-002  6.067E-003  3.200E-001  2.612E-002  6.066E-003  3.200E-001  3.290E-002  6.065E-003  3.200E-001  4.146E-002  6.065E-003  3.200E-001  5.001E-002  6.065E-003  3.200E-001  5.155E-006  1.007E-002  3.200E-001  8.557E-003  1.007E-002  3.200E-001  1.933E-002  1.007E-002  3.200E-001  3.291E-002  1.007E-002  3.200E-001  5.001E-002  1.007E-002  3.200E-001  5.942E-006  1.408E-002  3.200E-001  4.282E-003  1.408E-002  3.200E-001  8.557E-003  1.408E-002  3.200E-001  1.394E-002  1.408E-002  3.200E-001  1.933E-002  1.408E-002  3.200E-001  2.612E-002  1.408E-002  3.200E-001  3.291E-002  1.408E-002  3.200E-001  4.146E-002  1.407E-002  3.200E-001  5.001E-002  1.407E-002  3.200E-001  7.049E-006  1.974E-002  3.200E-001  8.558E-003  1.974E-002  3.200E-001  1.933E-002  1.974E-002  3.200E-001  3.291E-002  1.974E-002  3.200E-001  5.001E-002  1.974E-002  3.200E-001  8.154E-006  2.541E-002  3.200E-001  4.284E-003  2.541E-002  3.200E-001  8.559E-003  2.541E-002  3.200E-001  1.395E-002  2.540E-002  3.200E-001  1.933E-002  2.540E-002  3.200E-001  2.612E-002  2.540E-002  3.200E-001  3.291E-002  2.540E-002  3.200E-001  4.146E-002  2.540E-002  3.200E-001  5.001E-002  2.540E-002  3.200E-001  3.535E-006  4.263E-004  3.400E-001  8.555E-003  4.245E-004  3.400E-001  1.933E-002  4.227E-004  3.400E-001  3.291E-002  4.211E-004  3.400E-001  5.001E-002  4.202E-004  3.400E-001  4.811E-006  6.090E-003  3.400E-001  8.556E-003  6.089E-003  3.400E-001  1.933E-002  6.087E-003  3.400E-001  3.291E-002  6.085E-003  3.400E-001  5.001E-002  6.084E-003  3.400E-001  6.611E-006  1.410E-002  3.400E-001  8.558E-003  1.410E-002  3.400E-001  1.933E-002  1.410E-002  3.400E-001  3.291E-002  1.410E-002  3.400E-001  5.001E-002  1.409E-002  3.400E-001  9.157E-006  2.543E-002  3.400E-001  8.560E-003  2.543E-002  3.400E-001  1.933E-002  2.542E-002  3.400E-001  3.291E-002  2.542E-002  3.400E-001  5.001E-002  2.542E-002  3.400E-001  3.885E-006  4.422E-004  3.600E-001  4.280E-003  4.411E-004  3.600E-001  8.556E-003  4.402E-004  3.600E-001  1.394E-002  4.391E-004  3.600E-001  1.933E-002  4.381E-004  3.600E-001  2.612E-002  4.371E-004  3.600E-001  3.291E-002  4.363E-004  3.600E-001  4.146E-002  4.357E-004  3.600E-001  5.001E-002  4.353E-004  3.600E-001  4.601E-006  3.274E-003  3.600E-001  8.556E-003  3.272E-003  3.600E-001  1.933E-002  3.270E-003  3.600E-001  3.291E-002  3.268E-003  3.600E-001  5.001E-002  3.267E-003  3.600E-001  5.318E-006  6.106E-003  3.600E-001  4.281E-003  6.105E-003  3.600E-001  8.557E-003  6.104E-003  3.600E-001  1.394E-002  6.103E-003  3.600E-001  1.933E-002  6.102E-003  3.600E-001  2.612E-002  6.101E-003  3.600E-001  3.291E-002  6.100E-003  3.600E-001  4.146E-002  6.100E-003  3.600E-001  5.001E-002  6.099E-003  3.600E-001  6.331E-006  1.011E-002  3.600E-001  8.558E-003  1.011E-002  3.600E-001  1.933E-002  1.011E-002  3.600E-001  3.291E-002  1.011E-002  3.600E-001  5.001E-002  1.010E-002  3.600E-001  7.343E-006  1.412E-002  3.600E-001  4.283E-003  1.412E-002  3.600E-001  8.559E-003  1.411E-002  3.600E-001  1.395E-002  1.411E-002  3.600E-001  1.933E-002  1.411E-002  3.600E-001  2.612E-002  1.411E-002  3.600E-001  3.291E-002  1.411E-002  3.600E-001  4.146E-002  1.411E-002  3.600E-001  5.001E-002  1.411E-002  3.600E-001  8.766E-006  1.978E-002  3.600E-001  8.560E-003  1.978E-002  3.600E-001  1.933E-002  1.978E-002  3.600E-001  3.291E-002  1.977E-002  3.600E-001  5.001E-002  1.977E-002  3.600E-001  1.019E-005  2.544E-002  3.600E-001  4.286E-003  2.544E-002  3.600E-001  8.561E-003  2.544E-002  3.600E-001  1.395E-002  2.544E-002  3.600E-001  1.933E-002  2.544E-002  3.600E-001  2.612E-002  2.544E-002  3.600E-001  3.291E-002  2.544E-002  3.600E-001  4.146E-002  2.544E-002  3.600E-001  5.001E-002  2.544E-002  3.600E-001  4.302E-006  4.529E-004  3.800E-001  8.556E-003  4.507E-004  3.800E-001  1.933E-002  4.485E-004  3.800E-001  3.291E-002  4.465E-004  3.800E-001  5.001E-002  4.454E-004  3.800E-001  5.885E-006  6.117E-003  3.800E-001  8.558E-003  6.115E-003  3.800E-001  1.933E-002  6.113E-003  3.800E-001  3.291E-002  6.111E-003  3.800E-001  5.001E-002  6.110E-003  3.800E-001  8.119E-006  1.413E-002  3.800E-001  8.560E-003  1.412E-002  3.800E-001  1.933E-002  1.412E-002  3.800E-001  3.291E-002  1.412E-002  3.800E-001  5.001E-002  1.412E-002  3.800E-001  1.128E-005  2.545E-002  3.800E-001  8.562E-003  2.545E-002  3.800E-001  1.934E-002  2.545E-002  3.800E-001  3.291E-002  2.545E-002  3.800E-001  5.001E-002  2.545E-002  3.800E-001  4.785E-006  4.581E-004  4.000E-001  4.281E-003  4.569E-004  4.000E-001  8.557E-003  4.557E-004  4.000E-001  1.394E-002  4.544E-004  4.000E-001  1.933E-002  4.533E-004  4.000E-001  2.612E-002  4.521E-004  4.000E-001  3.291E-002  4.512E-004  4.000E-001  4.146E-002  4.503E-004  4.000E-001  5.001E-002  4.499E-004  4.000E-001  5.649E-006  3.290E-003  4.000E-001  8.558E-003  3.288E-003  4.000E-001  1.933E-002  3.285E-003  4.000E-001  3.291E-002  3.283E-003  4.000E-001  5.001E-002  3.282E-003  4.000E-001  6.513E-006  6.122E-003  4.000E-001  4.282E-003  6.121E-003  4.000E-001  8.558E-003  6.120E-003  4.000E-001  1.395E-002  6.119E-003  4.000E-001  1.933E-002  6.118E-003  4.000E-001  2.612E-002  6.116E-003  4.000E-001  3.291E-002  6.115E-003  4.000E-001  4.146E-002  6.115E-003  4.000E-001  5.001E-002  6.114E-003  4.000E-001  7.736E-006  1.013E-002  4.000E-001  8.559E-003  1.013E-002  4.000E-001  1.933E-002  1.012E-002  4.000E-001  3.291E-002  1.012E-002  4.000E-001  5.001E-002  1.012E-002  4.000E-001  8.957E-006  1.413E-002  4.000E-001  4.285E-003  1.413E-002  4.000E-001  8.560E-003  1.413E-002  4.000E-001  1.395E-002  1.413E-002  4.000E-001  1.933E-002  1.413E-002  4.000E-001  2.612E-002  1.413E-002  4.000E-001  3.291E-002  1.413E-002  4.000E-001  4.146E-002  1.412E-002  4.000E-001  5.001E-002  1.412E-002  4.000E-001  1.068E-005  1.980E-002  4.000E-001  8.562E-003  1.979E-002  4.000E-001  1.934E-002  1.979E-002  4.000E-001  3.291E-002  1.979E-002  4.000E-001  5.001E-002  1.979E-002  4.000E-001  1.239E-005  2.546E-002  4.000E-001  4.288E-003  2.546E-002  4.000E-001  8.563E-003  2.546E-002  4.000E-001  1.395E-002  2.546E-002  4.000E-001  1.934E-002  2.546E-002  4.000E-001  2.612E-002  2.545E-002  4.000E-001  3.291E-002  2.545E-002  4.000E-001  4.146E-002  2.545E-002  4.000E-001  5.001E-002  2.545E-002  4.000E-001  5.336E-006  4.572E-004  4.200E-001  8.558E-003  4.546E-004  4.200E-001  1.933E-002  4.520E-004  4.200E-001  3.291E-002  4.497E-004  4.200E-001  5.001E-002  4.483E-004  4.200E-001  7.201E-006  6.121E-003  4.200E-001  8.559E-003  6.119E-003  4.200E-001  1.933E-002  6.116E-003  4.200E-001  3.291E-002  6.114E-003  4.200E-001  5.001E-002  6.113E-003  4.200E-001  9.835E-006  1.413E-002  4.200E-001  8.561E-003  1.413E-002  4.200E-001  1.934E-002  1.413E-002  4.200E-001  3.291E-002  1.412E-002  4.200E-001  5.001E-002  1.412E-002  4.200E-001  1.356E-005  2.546E-002  4.200E-001  8.564E-003  2.546E-002  4.200E-001  1.934E-002  2.545E-002  4.200E-001  3.291E-002  2.545E-002  4.200E-001  5.001E-002  2.545E-002  4.200E-001  5.949E-006  4.496E-004  4.400E-001  4.282E-003  4.481E-004  4.400E-001  8.558E-003  4.468E-004  4.400E-001  1.395E-002  4.453E-004  4.400E-001  1.933E-002  4.440E-004  4.400E-001  2.612E-002  4.426E-004  4.400E-001  3.291E-002  4.415E-004  4.400E-001  4.146E-002  4.406E-004  4.400E-001  5.001E-002  4.401E-004  4.400E-001  6.948E-006  3.282E-003  4.400E-001  8.559E-003  3.279E-003  4.400E-001  1.933E-002  3.276E-003  4.400E-001  3.291E-002  3.274E-003  4.400E-001  5.001E-002  3.272E-003  4.400E-001  7.947E-006  6.114E-003  4.400E-001  4.284E-003  6.112E-003  4.400E-001  8.560E-003  6.111E-003  4.400E-001  1.395E-002  6.110E-003  4.400E-001  1.933E-002  6.108E-003  4.400E-001  2.612E-002  6.107E-003  4.400E-001  3.291E-002  6.106E-003  4.400E-001  4.146E-002  6.105E-003  4.400E-001  5.001E-002  6.104E-003  4.400E-001  9.361E-006  1.012E-002  4.400E-001  8.561E-003  1.012E-002  4.400E-001  1.934E-002  1.011E-002  4.400E-001  3.291E-002  1.011E-002  4.400E-001  5.001E-002  1.011E-002  4.400E-001  1.077E-005  1.412E-002  4.400E-001  4.287E-003  1.412E-002  4.400E-001  8.562E-003  1.412E-002  4.400E-001  1.395E-002  1.412E-002  4.400E-001  1.934E-002  1.412E-002  4.400E-001  2.612E-002  1.412E-002  4.400E-001  3.291E-002  1.412E-002  4.400E-001  4.146E-002  1.412E-002  4.400E-001  5.001E-002  1.411E-002  4.400E-001  1.276E-005  1.979E-002  4.400E-001  8.564E-003  1.979E-002  4.400E-001  1.934E-002  1.978E-002  4.400E-001  3.291E-002  1.978E-002  4.400E-001  5.001E-002  1.978E-002  4.400E-001  1.475E-005  2.545E-002  4.400E-001  4.290E-003  2.545E-002  4.400E-001  8.566E-003  2.545E-002  4.400E-001  1.395E-002  2.545E-002  4.400E-001  1.934E-002  2.545E-002  4.400E-001  2.613E-002  2.544E-002  4.400E-001  3.291E-002  2.544E-002  4.400E-001  4.146E-002  2.544E-002  4.400E-001  5.001E-002  2.544E-002  4.400E-001  6.626E-006  4.348E-004  4.600E-001  8.559E-003  4.318E-004  4.600E-001  1.933E-002  4.289E-004  4.600E-001  3.291E-002  4.263E-004  4.600E-001  5.002E-002  4.248E-004  4.600E-001  8.747E-006  6.099E-003  4.600E-001  8.561E-003  6.096E-003  4.600E-001  1.934E-002  6.093E-003  4.600E-001  3.291E-002  6.091E-003  4.600E-001  5.002E-002  6.089E-003  4.600E-001  1.174E-005  1.411E-002  4.600E-001  8.563E-003  1.411E-002  4.600E-001  1.934E-002  1.410E-002  4.600E-001  3.291E-002  1.410E-002  4.600E-001  5.002E-002  1.410E-002  4.600E-001  1.598E-005  2.544E-002  4.600E-001  8.567E-003  2.543E-002  4.600E-001  1.934E-002  2.543E-002  4.600E-001  3.291E-002  2.543E-002  4.600E-001  5.002E-002  2.543E-002  4.600E-001  7.361E-006  4.124E-004  4.800E-001  4.284E-003  4.108E-004  4.800E-001  8.560E-003  4.093E-004  4.800E-001  1.395E-002  4.076E-004  4.800E-001  1.934E-002  4.062E-004  4.800E-001  2.612E-002  4.046E-004  4.800E-001  3.291E-002  4.034E-004  4.800E-001  4.146E-002  4.024E-004  4.800E-001  5.002E-002  4.019E-004  4.800E-001  8.480E-006  3.245E-003  4.800E-001  8.561E-003  3.242E-003  4.800E-001  1.934E-002  3.238E-003  4.800E-001  3.291E-002  3.236E-003  4.800E-001  5.002E-002  3.234E-003  4.800E-001  9.599E-006  6.077E-003  4.800E-001  4.286E-003  6.075E-003  4.800E-001  8.562E-003  6.074E-003  4.800E-001  1.395E-002  6.072E-003  4.800E-001  1.934E-002  6.071E-003  4.800E-001  2.612E-002  6.069E-003  4.800E-001  3.291E-002  6.068E-003  4.800E-001  4.146E-002  6.067E-003  4.800E-001  5.002E-002  6.066E-003  4.800E-001  1.118E-005  1.008E-002  4.800E-001  8.563E-003  1.008E-002  4.800E-001  1.934E-002  1.008E-002  4.800E-001  3.291E-002  1.007E-002  4.800E-001  5.002E-002  1.007E-002  4.800E-001  1.277E-005  1.409E-002  4.800E-001  4.289E-003  1.409E-002  4.800E-001  8.564E-003  1.408E-002  4.800E-001  1.395E-002  1.408E-002  4.800E-001  1.934E-002  1.408E-002  4.800E-001  2.613E-002  1.408E-002  4.800E-001  3.291E-002  1.408E-002  4.800E-001  4.147E-002  1.408E-002  4.800E-001  5.002E-002  1.408E-002  4.800E-001  1.500E-005  1.975E-002  4.800E-001  8.566E-003  1.975E-002  4.800E-001  1.934E-002  1.974E-002  4.800E-001  3.291E-002  1.974E-002  4.800E-001  5.002E-002  1.974E-002  4.800E-001  1.723E-005  2.541E-002  4.800E-001  4.293E-003  2.541E-002  4.800E-001  8.568E-003  2.541E-002  4.800E-001  1.395E-002  2.541E-002  4.800E-001  1.934E-002  2.541E-002  4.800E-001  2.613E-002  2.541E-002  4.800E-001  3.292E-002  2.541E-002  4.800E-001  4.147E-002  2.540E-002  4.800E-001  5.002E-002  2.540E-002  4.800E-001  8.160E-006  3.820E-004  5.000E-001  8.561E-003  3.787E-004  5.000E-001  1.934E-002  3.754E-004  5.000E-001  3.291E-002  3.726E-004  5.000E-001  5.002E-002  3.710E-004  5.000E-001  1.050E-005  6.046E-003  5.000E-001  8.563E-003  6.043E-003  5.000E-001  1.934E-002  6.040E-003  5.000E-001  3.291E-002  6.037E-003  5.000E-001  5.002E-002  6.035E-003  5.000E-001  1.381E-005  1.406E-002  5.000E-001  8.565E-003  1.405E-002  5.000E-001  1.934E-002  1.405E-002  5.000E-001  3.291E-002  1.405E-002  5.000E-001  5.002E-002  1.405E-002  5.000E-001  1.850E-005  2.538E-002  5.000E-001  8.569E-003  2.538E-002  5.000E-001  1.934E-002  2.538E-002  5.000E-001  3.292E-002  2.537E-002  5.000E-001  5.002E-002  2.537E-002  5.000E-001  9.016E-006  3.431E-004  5.199E-001  4.285E-003  3.413E-004  5.199E-001  8.562E-003  3.397E-004  5.199E-001  1.395E-002  3.378E-004  5.199E-001  1.934E-002  3.362E-004  5.199E-001  2.613E-002  3.346E-004  5.199E-001  3.291E-002  3.333E-004  5.199E-001  4.147E-002  3.322E-004  5.199E-001  5.002E-002  3.316E-004  5.199E-001  1.024E-005  3.175E-003  5.200E-001  8.563E-003  3.172E-003  5.200E-001  1.934E-002  3.169E-003  5.200E-001  3.291E-002  3.166E-003  5.200E-001  5.002E-002  3.164E-003  5.200E-001  1.146E-005  6.008E-003  5.200E-001  4.288E-003  6.006E-003  5.200E-001  8.564E-003  6.004E-003  5.200E-001  1.395E-002  6.002E-003  5.200E-001  1.934E-002  6.001E-003  5.200E-001  2.613E-002  5.999E-003  5.200E-001  3.291E-002  5.998E-003  5.200E-001  4.147E-002  5.997E-003  5.200E-001  5.002E-002  5.996E-003  5.200E-001  1.318E-005  1.001E-002  5.200E-001  8.565E-003  1.001E-002  5.200E-001  1.934E-002  1.001E-002  5.200E-001  3.292E-002  1.000E-002  5.200E-001  5.002E-002  1.000E-002  5.200E-001  1.491E-005  1.402E-002  5.200E-001  4.291E-003  1.402E-002  5.200E-001  8.567E-003  1.401E-002  5.200E-001  1.395E-002  1.401E-002  5.200E-001  1.934E-002  1.401E-002  5.200E-001  2.613E-002  1.401E-002  5.200E-001  3.292E-002  1.401E-002  5.200E-001  4.147E-002  1.401E-002  5.200E-001  5.002E-002  1.401E-002  5.200E-001  1.735E-005  1.968E-002  5.200E-001  8.569E-003  1.968E-002  5.200E-001  1.934E-002  1.968E-002  5.200E-001  3.292E-002  1.967E-002  5.200E-001  5.002E-002  1.967E-002  5.200E-001  1.977E-005  2.535E-002  5.200E-001  4.295E-003  2.534E-002  5.200E-001  8.571E-003  2.534E-002  5.200E-001  1.396E-002  2.534E-002  5.200E-001  1.934E-002  2.534E-002  5.200E-001  2.613E-002  2.534E-002  5.200E-001  3.292E-002  2.534E-002  5.200E-001  4.147E-002  2.533E-002  5.200E-001  5.002E-002  2.533E-002  5.200E-001  9.940E-006  2.953E-004  5.399E-001  8.563E-003  2.918E-004  5.399E-001  1.934E-002  2.883E-004  5.399E-001  3.291E-002  2.852E-004  5.399E-001  5.002E-002  2.835E-004  5.399E-001  1.246E-005  5.960E-003  5.400E-001  8.565E-003  5.956E-003  5.400E-001  1.934E-002  5.953E-003  5.400E-001  3.292E-002  5.950E-003  5.399E-001  5.002E-002  5.948E-003  5.399E-001  1.603E-005  1.397E-002  5.400E-001  8.568E-003  1.397E-002  5.400E-001  1.934E-002  1.396E-002  5.400E-001  3.292E-002  1.396E-002  5.400E-001  5.002E-002  1.396E-002  5.400E-001  2.106E-005  2.530E-002  5.400E-001  8.572E-003  2.529E-002  5.400E-001  1.935E-002  2.529E-002  5.400E-001  3.292E-002  2.529E-002  5.400E-001  5.002E-002  2.529E-002  5.400E-001  1.092E-005  2.385E-004  5.599E-001  4.287E-003  2.366E-004  5.599E-001  8.564E-003  2.349E-004  5.599E-001  1.395E-002  2.329E-004  5.599E-001  1.934E-002  2.312E-004  5.599E-001  2.613E-002  2.295E-004  5.599E-001  3.292E-002  2.281E-004  5.599E-001  4.147E-002  2.269E-004  5.599E-001  5.002E-002  2.263E-004  5.599E-001  1.222E-005  3.071E-003  5.599E-001  8.565E-003  3.067E-003  5.599E-001  1.934E-002  3.064E-003  5.599E-001  3.292E-002  3.060E-003  5.599E-001  5.002E-002  3.059E-003  5.599E-001  1.352E-005  5.903E-003  5.599E-001  4.290E-003  5.901E-003  5.599E-001  8.566E-003  5.899E-003  5.599E-001  1.395E-002  5.898E-003  5.599E-001  1.934E-002  5.896E-003  5.599E-001  2.613E-002  5.894E-003  5.599E-001  3.292E-002  5.893E-003  5.599E-001  4.147E-002  5.891E-003  5.599E-001  5.002E-002  5.891E-003  5.599E-001  1.536E-005  9.908E-003  5.600E-001  8.567E-003  9.905E-003  5.600E-001  1.934E-002  9.901E-003  5.600E-001  3.292E-002  9.898E-003  5.600E-001  5.002E-002  9.896E-003  5.600E-001  1.720E-005  1.391E-002  5.600E-001  4.293E-003  1.391E-002  5.600E-001  8.569E-003  1.391E-002  5.600E-001  1.396E-002  1.391E-002  5.600E-001  1.934E-002  1.391E-002  5.600E-001  2.613E-002  1.390E-002  5.600E-001  3.292E-002  1.390E-002  5.600E-001  4.147E-002  1.390E-002  5.600E-001  5.002E-002  1.390E-002  5.600E-001  1.979E-005  1.958E-002  5.600E-001  8.571E-003  1.957E-002  5.600E-001  1.935E-002  1.957E-002  5.600E-001  3.292E-002  1.957E-002  5.600E-001  5.002E-002  1.957E-002  5.600E-001  2.238E-005  2.524E-002  5.600E-001  4.298E-003  2.524E-002  5.600E-001  8.573E-003  2.524E-002  5.600E-001  1.396E-002  2.524E-002  5.600E-001  1.935E-002  2.523E-002  5.600E-001  2.613E-002  2.523E-002  5.600E-001  3.292E-002  2.523E-002  5.600E-001  4.147E-002  2.523E-002  5.600E-001  5.002E-002  2.523E-002  5.600E-001  1.197E-005  1.722E-004  5.799E-001  8.565E-003  1.685E-004  5.799E-001  1.934E-002  1.648E-004  5.799E-001  3.292E-002  1.616E-004  5.799E-001  5.002E-002  1.598E-004  5.799E-001  1.463E-005  5.837E-003  5.799E-001  8.567E-003  5.833E-003  5.799E-001  1.934E-002  5.829E-003  5.799E-001  3.292E-002  5.826E-003  5.799E-001  5.002E-002  5.824E-003  5.799E-001  1.839E-005  1.385E-002  5.800E-001  8.570E-003  1.384E-002  5.800E-001  1.934E-002  1.384E-002  5.800E-001  3.292E-002  1.384E-002  5.800E-001  5.002E-002  1.383E-002  5.800E-001  2.369E-005  2.517E-002  5.800E-001  8.575E-003  2.517E-002  5.800E-001  1.935E-002  2.517E-002  5.800E-001  3.292E-002  2.516E-002  5.800E-001  5.002E-002  2.516E-002  5.800E-001  1.308E-005  9.637E-005  5.999E-001  4.289E-003  9.440E-005  5.999E-001  8.566E-003  9.260E-005  5.999E-001  1.395E-002  9.057E-005  5.999E-001  1.934E-002  8.881E-005  5.999E-001  2.613E-002  8.695E-005  5.999E-001  3.292E-002  8.550E-005  5.999E-001  4.147E-002  8.427E-005  5.999E-001  5.002E-002  8.368E-005  5.999E-001  1.443E-005  2.929E-003  5.999E-001  8.567E-003  2.925E-003  5.999E-001  1.934E-002  2.921E-003  5.999E-001  3.292E-002  2.918E-003  5.999E-001  5.002E-002  2.916E-003  5.999E-001  1.579E-005  5.761E-003  5.999E-001  4.292E-003  5.759E-003  5.999E-001  8.568E-003  5.757E-003  5.999E-001  1.396E-002  5.755E-003  5.999E-001  1.934E-002  5.753E-003  5.999E-001  2.613E-002  5.752E-003  5.999E-001  3.292E-002  5.750E-003  5.999E-001  4.147E-002  5.749E-003  5.999E-001  5.002E-002  5.748E-003  5.999E-001  1.771E-005  9.766E-003  5.999E-001  8.570E-003  9.763E-003  5.999E-001  1.934E-002  9.759E-003  5.999E-001  3.292E-002  9.756E-003  5.999E-001  5.002E-002  9.754E-003  5.999E-001  1.963E-005  1.377E-002  6.000E-001  4.296E-003  1.377E-002  6.000E-001  8.571E-003  1.377E-002  6.000E-001  1.396E-002  1.377E-002  6.000E-001  1.935E-002  1.376E-002  6.000E-001  2.613E-002  1.376E-002  6.000E-001  3.292E-002  1.376E-002  6.000E-001  4.147E-002  1.376E-002  6.000E-001  5.002E-002  1.376E-002  6.000E-001  2.233E-005  1.944E-002  6.000E-001  8.574E-003  1.943E-002  6.000E-001  1.935E-002  1.943E-002  6.000E-001  3.292E-002  1.942E-002  6.000E-001  5.002E-002  1.942E-002  6.000E-001  2.503E-005  2.510E-002  6.000E-001  4.300E-003  2.510E-002  6.000E-001  8.576E-003  2.510E-002  6.000E-001  1.396E-002  2.509E-002  6.000E-001  1.935E-002  2.509E-002  6.000E-001  2.614E-002  2.509E-002  6.000E-001  3.292E-002  2.509E-002  6.000E-001  4.147E-002  2.509E-002  6.000E-001  5.003E-002  2.509E-002  6.000E-001  1.425E-005  1.067E-005  6.199E-001  8.567E-003  6.849E-006  6.199E-001  1.934E-002  2.997E-006  6.199E-001  3.292E-002 -3.524E-007  6.199E-001  5.003E-002 -2.218E-006  6.199E-001  1.700E-005  5.675E-003  6.199E-001  8.569E-003  5.672E-003  6.199E-001  1.934E-002  5.668E-003  6.199E-001  3.292E-002  5.664E-003  6.199E-001  5.003E-002  5.662E-003  6.199E-001  2.088E-005  1.369E-002  6.200E-001  8.573E-003  1.368E-002  6.200E-001  1.935E-002  1.368E-002  6.199E-001  3.292E-002  1.367E-002  6.199E-001  5.003E-002  1.367E-002  6.199E-001  2.637E-005  2.501E-002  6.200E-001  8.577E-003  2.501E-002  6.200E-001  1.935E-002  2.501E-002  6.200E-001  3.292E-002  2.500E-002  6.200E-001  5.003E-002  2.500E-002  6.200E-001  1.549E-005 -8.500E-005  6.399E-001  4.292E-003 -8.701E-005  6.399E-001  8.568E-003 -8.885E-005  6.399E-001  1.396E-002 -9.093E-005  6.399E-001  1.934E-002 -9.274E-005  6.399E-001  2.613E-002 -9.464E-005  6.399E-001  3.292E-002 -9.612E-005  6.399E-001  4.147E-002 -9.739E-005  6.399E-001  5.003E-002 -9.799E-005  6.399E-001  1.688E-005  2.747E-003  6.399E-001  8.570E-003  2.744E-003  6.399E-001  1.935E-002  2.740E-003  6.399E-001  3.292E-002  2.736E-003  6.399E-001  5.003E-002  2.734E-003  6.399E-001  1.827E-005  5.580E-003  6.399E-001  4.294E-003  5.578E-003  6.399E-001  8.571E-003  5.576E-003  6.399E-001  1.396E-002  5.574E-003  6.399E-001  1.935E-002  5.572E-003  6.399E-001  2.613E-002  5.570E-003  6.399E-001  3.292E-002  5.569E-003  6.399E-001  4.147E-002  5.567E-003  6.399E-001  5.003E-002  5.567E-003  6.399E-001  2.023E-005  9.585E-003  6.399E-001  8.572E-003  9.581E-003  6.399E-001  1.935E-002  9.577E-003  6.399E-001  3.292E-002  9.574E-003  6.399E-001  5.003E-002  9.572E-003  6.399E-001  2.220E-005  1.359E-002  6.399E-001  4.298E-003  1.359E-002  6.399E-001  8.574E-003  1.359E-002  6.399E-001  1.396E-002  1.358E-002  6.399E-001  1.935E-002  1.358E-002  6.399E-001  2.614E-002  1.358E-002  6.399E-001  3.292E-002  1.358E-002  6.399E-001  4.148E-002  1.358E-002  6.399E-001  5.003E-002  1.358E-002  6.399E-001  2.497E-005  1.925E-002  6.400E-001  8.576E-003  1.925E-002  6.400E-001  1.935E-002  1.925E-002  6.400E-001  3.292E-002  1.924E-002  6.400E-001  5.003E-002  1.924E-002  6.400E-001  2.773E-005  2.492E-002  6.400E-001  4.303E-003  2.492E-002  6.400E-001  8.579E-003  2.491E-002  6.400E-001  1.397E-002  2.491E-002  6.400E-001  1.935E-002  2.491E-002  6.400E-001  2.614E-002  2.491E-002  6.400E-001  3.293E-002  2.491E-002  6.400E-001  4.148E-002  2.491E-002  6.400E-001  5.003E-002  2.490E-002  6.400E-001  1.681E-005 -1.907E-004  6.599E-001  8.570E-003 -1.946E-004  6.599E-001  1.935E-002 -1.985E-004  6.599E-001  3.292E-002 -2.019E-004  6.599E-001  5.003E-002 -2.038E-004  6.599E-001  1.960E-005  5.474E-003  6.599E-001  8.572E-003  5.470E-003  6.599E-001  1.935E-002  5.466E-003  6.599E-001  3.292E-002  5.463E-003  6.599E-001  5.003E-002  5.461E-003  6.599E-001  2.354E-005  1.348E-002  6.599E-001  8.575E-003  1.348E-002  6.599E-001  1.935E-002  1.348E-002  6.599E-001  3.293E-002  1.347E-002  6.599E-001  5.003E-002  1.347E-002  6.599E-001  2.909E-005  2.481E-002  6.600E-001  8.580E-003  2.481E-002  6.600E-001  1.935E-002  2.480E-002  6.600E-001  3.293E-002  2.480E-002  6.600E-001  5.003E-002  2.480E-002  6.600E-001  1.821E-005 -3.066E-004  6.799E-001  4.295E-003 -3.086E-004  6.799E-001  8.571E-003 -3.104E-004  6.799E-001  1.396E-002 -3.125E-004  6.799E-001  1.935E-002 -3.143E-004  6.799E-001  2.614E-002 -3.162E-004  6.798E-001  3.292E-002 -3.177E-004  6.798E-001  4.148E-002 -3.190E-004  6.798E-001  5.003E-002 -3.196E-004  6.798E-001  1.960E-005  2.526E-003  6.799E-001  8.572E-003  2.522E-003  6.799E-001  1.935E-002  2.518E-003  6.799E-001  3.292E-002  2.515E-003  6.799E-001  5.003E-002  2.513E-003  6.799E-001  2.100E-005  5.358E-003  6.799E-001  4.297E-003  5.356E-003  6.799E-001  8.573E-003  5.354E-003  6.799E-001  1.396E-002  5.352E-003  6.799E-001  1.935E-002  5.350E-003  6.799E-001  2.614E-002  5.348E-003  6.799E-001  3.292E-002  5.347E-003  6.799E-001  4.148E-002  5.346E-003  6.799E-001  5.003E-002  5.345E-003  6.799E-001  2.297E-005  9.363E-003  6.799E-001  8.575E-003  9.360E-003  6.799E-001  1.935E-002  9.356E-003  6.799E-001  3.293E-002  9.352E-003  6.799E-001  5.003E-002  9.350E-003  6.799E-001  2.494E-005  1.337E-002  6.799E-001  4.301E-003  1.337E-002  6.799E-001  8.577E-003  1.336E-002  6.799E-001  1.396E-002  1.336E-002  6.799E-001  1.935E-002  1.336E-002  6.799E-001  2.614E-002  1.336E-002  6.799E-001  3.293E-002  1.336E-002  6.799E-001  4.148E-002  1.336E-002  6.799E-001  5.003E-002  1.336E-002  6.799E-001  2.772E-005  1.903E-002  6.800E-001  8.579E-003  1.903E-002  6.800E-001  1.935E-002  1.902E-002  6.800E-001  3.293E-002  1.902E-002  6.800E-001  5.003E-002  1.902E-002  6.800E-001  3.049E-005  2.470E-002  6.800E-001  4.306E-003  2.469E-002  6.800E-001  8.581E-003  2.469E-002  6.800E-001  1.397E-002  2.469E-002  6.800E-001  1.935E-002  2.469E-002  6.800E-001  2.614E-002  2.469E-002  6.800E-001  3.293E-002  2.469E-002  6.800E-001  4.148E-002  2.468E-002  6.800E-001  5.003E-002  2.468E-002  6.800E-001  1.969E-005 -4.325E-004  6.998E-001  8.573E-003 -4.363E-004  6.998E-001  1.935E-002 -4.402E-004  6.998E-001  3.293E-002 -4.436E-004  6.998E-001  5.003E-002 -4.455E-004  6.998E-001  2.246E-005  5.232E-003  6.999E-001  8.575E-003  5.228E-003  6.999E-001  1.935E-002  5.224E-003  6.999E-001  3.293E-002  5.221E-003  6.999E-001  5.003E-002  5.219E-003  6.999E-001  2.637E-005  1.324E-002  6.999E-001  8.578E-003  1.324E-002  6.999E-001  1.935E-002  1.324E-002  6.999E-001  3.293E-002  1.323E-002  6.999E-001  5.003E-002  1.323E-002  6.999E-001  3.188E-005  2.457E-002  7.000E-001  8.583E-003  2.457E-002  7.000E-001  1.936E-002  2.456E-002  7.000E-001  3.293E-002  2.456E-002  7.000E-001  5.003E-002  2.456E-002  7.000E-001  2.125E-005 -5.684E-004  7.198E-001  4.298E-003 -5.704E-004  7.198E-001  8.574E-003 -5.722E-004  7.198E-001  1.396E-002 -5.743E-004  7.198E-001  1.935E-002 -5.760E-004  7.198E-001  2.614E-002 -5.779E-004  7.198E-001  3.293E-002 -5.794E-004  7.198E-001  4.148E-002 -5.806E-004  7.198E-001  5.003E-002 -5.812E-004  7.198E-001  2.262E-005  2.264E-003  7.198E-001  8.575E-003  2.260E-003  7.198E-001  1.935E-002  2.256E-003  7.198E-001  3.293E-002  2.253E-003  7.198E-001  5.003E-002  2.251E-003  7.198E-001  2.398E-005  5.096E-003  7.199E-001  4.300E-003  5.094E-003  7.199E-001  8.576E-003  5.092E-003  7.199E-001  1.396E-002  5.090E-003  7.199E-001  1.935E-002  5.089E-003  7.199E-001  2.614E-002  5.087E-003  7.199E-001  3.293E-002  5.085E-003  7.199E-001  4.148E-002  5.084E-003  7.199E-001  5.003E-002  5.083E-003  7.199E-001  2.592E-005  9.102E-003  7.199E-001  8.578E-003  9.098E-003  7.199E-001  1.935E-002  9.094E-003  7.199E-001  3.293E-002  9.091E-003  7.199E-001  5.003E-002  9.089E-003  7.199E-001  2.786E-005  1.311E-002  7.199E-001  4.304E-003  1.310E-002  7.199E-001  8.580E-003  1.310E-002  7.199E-001  1.397E-002  1.310E-002  7.199E-001  1.935E-002  1.310E-002  7.199E-001  2.614E-002  1.310E-002  7.199E-001  3.293E-002  1.310E-002  7.199E-001  4.148E-002  1.309E-002  7.199E-001  5.003E-002  1.309E-002  7.199E-001  3.059E-005  1.877E-002  7.200E-001  8.582E-003  1.877E-002  7.200E-001  1.936E-002  1.876E-002  7.200E-001  3.293E-002  1.876E-002  7.200E-001  5.003E-002  1.876E-002  7.200E-001  3.331E-005  2.443E-002  7.200E-001  4.309E-003  2.443E-002  7.200E-001  8.584E-003  2.443E-002  7.200E-001  1.397E-002  2.443E-002  7.200E-001  1.936E-002  2.443E-002  7.200E-001  2.614E-002  2.442E-002  7.200E-001  3.293E-002  2.442E-002  7.200E-001  4.148E-002  2.442E-002  7.200E-001  5.003E-002  2.442E-002  7.200E-001  2.289E-005 -7.143E-004  7.398E-001  8.576E-003 -7.180E-004  7.398E-001  1.935E-002 -7.217E-004  7.398E-001  3.293E-002 -7.250E-004  7.398E-001  5.003E-002 -7.269E-004  7.398E-001  2.557E-005  4.950E-003  7.399E-001  8.578E-003  4.947E-003  7.399E-001  1.935E-002  4.943E-003  7.399E-001  3.293E-002  4.940E-003  7.399E-001  5.003E-002  4.938E-003  7.399E-001  2.936E-005  1.296E-002  7.399E-001  8.581E-003  1.296E-002  7.399E-001  1.936E-002  1.295E-002  7.399E-001  3.293E-002  1.295E-002  7.399E-001  5.003E-002  1.295E-002  7.399E-001  3.470E-005  2.429E-002  7.400E-001  8.586E-003  2.428E-002  7.400E-001  1.936E-002  2.428E-002  7.400E-001  3.293E-002  2.428E-002  7.400E-001  5.003E-002  2.428E-002  7.400E-001  2.460E-005 -8.698E-004  7.598E-001  4.301E-003 -8.717E-004  7.598E-001  8.577E-003 -8.734E-004  7.598E-001  1.397E-002 -8.754E-004  7.598E-001  1.935E-002 -8.771E-004  7.598E-001  2.614E-002 -8.789E-004  7.598E-001  3.293E-002 -8.803E-004  7.598E-001  4.148E-002 -8.815E-004  7.598E-001  5.004E-002 -8.821E-004  7.598E-001  2.590E-005  1.963E-003  7.598E-001  8.578E-003  1.959E-003  7.598E-001  1.935E-002  1.955E-003  7.598E-001  3.293E-002  1.952E-003  7.598E-001  5.004E-002  1.950E-003  7.598E-001  2.721E-005  4.795E-003  7.598E-001  4.303E-003  4.793E-003  7.598E-001  8.580E-003  4.791E-003  7.598E-001  1.397E-002  4.789E-003  7.598E-001  1.935E-002  4.788E-003  7.598E-001  2.614E-002  4.786E-003  7.598E-001  3.293E-002  4.784E-003  7.598E-001  4.148E-002  4.783E-003  7.598E-001  5.004E-002  4.783E-003  7.598E-001  2.907E-005  8.800E-003  7.599E-001  8.581E-003  8.797E-003  7.599E-001  1.936E-002  8.793E-003  7.599E-001  3.293E-002  8.790E-003  7.599E-001  5.004E-002  8.788E-003  7.599E-001  3.092E-005  1.281E-002  7.599E-001  4.307E-003  1.280E-002  7.599E-001  8.583E-003  1.280E-002  7.599E-001  1.397E-002  1.280E-002  7.599E-001  1.936E-002  1.280E-002  7.599E-001  2.614E-002  1.280E-002  7.599E-001  3.293E-002  1.279E-002  7.599E-001  4.148E-002  1.279E-002  7.599E-001  5.004E-002  1.279E-002  7.599E-001  3.353E-005  1.847E-002  7.600E-001  8.585E-003  1.847E-002  7.600E-001  1.936E-002  1.846E-002  7.600E-001  3.293E-002  1.846E-002  7.600E-001  5.004E-002  1.846E-002  7.600E-001  3.613E-005  2.413E-002  7.600E-001  4.312E-003  2.413E-002  7.600E-001  8.587E-003  2.413E-002  7.600E-001  1.397E-002  2.413E-002  7.600E-001  1.936E-002  2.413E-002  7.600E-001  2.615E-002  2.412E-002  7.600E-001  3.293E-002  2.412E-002  7.600E-001  4.149E-002  2.412E-002  7.600E-001  5.004E-002  2.412E-002  7.600E-001  2.638E-005 -1.035E-003  7.798E-001  8.579E-003 -1.038E-003  7.798E-001  1.935E-002 -1.042E-003  7.798E-001  3.293E-002 -1.045E-003  7.798E-001  5.004E-002 -1.047E-003  7.798E-001  2.891E-005  4.630E-003  7.798E-001  8.581E-003  4.626E-003  7.798E-001  1.936E-002  4.623E-003  7.798E-001  3.293E-002  4.620E-003  7.798E-001  5.004E-002  4.618E-003  7.798E-001  3.249E-005  1.264E-002  7.799E-001  8.584E-003  1.264E-002  7.799E-001  1.936E-002  1.263E-002  7.799E-001  3.293E-002  1.263E-002  7.799E-001  5.004E-002  1.263E-002  7.799E-001  3.753E-005  2.397E-002  7.800E-001  8.588E-003  2.396E-002  7.800E-001  1.936E-002  2.396E-002  7.800E-001  3.294E-002  2.396E-002  7.800E-001  5.004E-002  2.396E-002  7.800E-001  2.825E-005 -1.209E-003  7.998E-001  4.305E-003 -1.211E-003  7.998E-001  8.581E-003 -1.212E-003  7.998E-001  1.397E-002 -1.214E-003  7.998E-001  1.936E-002 -1.216E-003  7.998E-001  2.614E-002 -1.217E-003  7.998E-001  3.293E-002 -1.219E-003  7.998E-001  4.149E-002 -1.220E-003  7.998E-001  5.004E-002 -1.220E-003  7.998E-001  2.946E-005  1.624E-003  7.998E-001  8.582E-003  1.620E-003  7.998E-001  1.936E-002  1.617E-003  7.998E-001  3.293E-002  1.614E-003  7.998E-001  5.004E-002  1.612E-003  7.998E-001  3.068E-005  4.456E-003  7.998E-001  4.307E-003  4.454E-003  7.998E-001  8.583E-003  4.452E-003  7.998E-001  1.397E-002  4.451E-003  7.998E-001  1.936E-002  4.449E-003  7.998E-001  2.615E-002  4.447E-003  7.998E-001  3.293E-002  4.446E-003  7.998E-001  4.149E-002  4.445E-003  7.998E-001  5.004E-002  4.444E-003  7.998E-001  3.240E-005  8.461E-003  7.999E-001  8.584E-003  8.458E-003  7.999E-001  1.936E-002  8.454E-003  7.999E-001  3.293E-002  8.451E-003  7.999E-001  5.004E-002  8.450E-003  7.999E-001  3.412E-005  1.247E-002  7.999E-001  4.310E-003  1.246E-002  7.999E-001  8.586E-003  1.246E-002  7.999E-001  1.397E-002  1.246E-002  7.999E-001  1.936E-002  1.246E-002  7.999E-001  2.615E-002  1.246E-002  7.999E-001  3.294E-002  1.246E-002  7.999E-001  4.149E-002  1.246E-002  7.999E-001  5.004E-002  1.245E-002  7.999E-001  3.655E-005  1.813E-002  8.000E-001  8.588E-003  1.813E-002  8.000E-001  1.936E-002  1.812E-002  8.000E-001  3.294E-002  1.812E-002  8.000E-001  5.004E-002  1.812E-002  7.999E-001  3.896E-005  2.379E-002  8.000E-001  4.314E-003  2.379E-002  8.000E-001  8.590E-003  2.379E-002  8.000E-001  1.398E-002  2.379E-002  8.000E-001  1.936E-002  2.379E-002  8.000E-001  2.615E-002  2.379E-002  8.000E-001  3.294E-002  2.378E-002  8.000E-001  4.149E-002  2.378E-002  8.000E-001  5.004E-002  2.378E-002  8.000E-001  3.020E-005 -1.392E-003  8.198E-001  8.583E-003 -1.395E-003  8.198E-001  1.936E-002 -1.398E-003  8.198E-001  3.293E-002 -1.401E-003  8.198E-001  5.004E-002 -1.403E-003  8.198E-001  3.251E-005  4.273E-003  8.198E-001  8.585E-003  4.270E-003  8.198E-001  1.936E-002  4.266E-003  8.198E-001  3.294E-002  4.264E-003  8.198E-001  5.004E-002  4.262E-003  8.198E-001  3.577E-005  1.228E-002  8.199E-001  8.587E-003  1.228E-002  8.199E-001  1.936E-002  1.228E-002  8.199E-001  3.294E-002  1.227E-002  8.199E-001  5.004E-002  1.227E-002  8.199E-001  4.036E-005  2.361E-002  8.200E-001  8.591E-003  2.361E-002  8.200E-001  1.936E-002  2.360E-002  8.200E-001  3.294E-002  2.360E-002  8.200E-001  5.004E-002  2.360E-002  8.200E-001  3.225E-005 -1.583E-003  8.398E-001  4.308E-003 -1.584E-003  8.398E-001  8.585E-003 -1.586E-003  8.398E-001  1.397E-002 -1.587E-003  8.398E-001  1.936E-002 -1.589E-003  8.398E-001  2.615E-002 -1.590E-003  8.398E-001  3.294E-002 -1.591E-003  8.398E-001  4.149E-002 -1.592E-003  8.398E-001  5.004E-002 -1.593E-003  8.398E-001  3.333E-005  1.250E-003  8.398E-001  8.586E-003  1.247E-003  8.398E-001  1.936E-002  1.244E-003  8.398E-001  3.294E-002  1.241E-003  8.398E-001  5.004E-002  1.239E-003  8.398E-001  3.442E-005  4.082E-003  8.398E-001  4.310E-003  4.080E-003  8.398E-001  8.586E-003  4.079E-003  8.398E-001  1.397E-002  4.077E-003  8.398E-001  1.936E-002  4.076E-003  8.398E-001  2.615E-002  4.074E-003  8.398E-001  3.294E-002  4.073E-003  8.398E-001  4.149E-002  4.072E-003  8.398E-001  5.004E-002  4.071E-003  8.398E-001  3.596E-005  8.087E-003  8.399E-001  8.588E-003  8.084E-003  8.399E-001  1.936E-002  8.081E-003  8.399E-001  3.294E-002  8.078E-003  8.399E-001  5.004E-002  8.077E-003  8.399E-001  3.749E-005  1.209E-002  8.399E-001  4.313E-003  1.209E-002  8.399E-001  8.589E-003  1.209E-002  8.399E-001  1.398E-002  1.209E-002  8.399E-001  1.936E-002  1.209E-002  8.399E-001  2.615E-002  1.208E-002  8.399E-001  3.294E-002  1.208E-002  8.399E-001  4.149E-002  1.208E-002  8.399E-001  5.004E-002  1.208E-002  8.399E-001  3.966E-005  1.776E-002  8.399E-001  8.591E-003  1.775E-002  8.399E-001  1.936E-002  1.775E-002  8.399E-001  3.294E-002  1.775E-002  8.399E-001  5.004E-002  1.775E-002  8.399E-001  4.180E-005  2.342E-002  8.400E-001  4.317E-003  2.342E-002  8.400E-001  8.593E-003  2.342E-002  8.400E-001  1.398E-002  2.342E-002  8.400E-001  1.937E-002  2.341E-002  8.400E-001  2.615E-002  2.341E-002  8.400E-001  3.294E-002  2.341E-002  8.400E-001  4.149E-002  2.341E-002  8.400E-001  5.004E-002  2.341E-002  8.400E-001  3.440E-005 -1.781E-003  8.598E-001  8.587E-003 -1.784E-003  8.598E-001  1.936E-002 -1.787E-003  8.597E-001  3.294E-002 -1.790E-003  8.597E-001  5.004E-002 -1.791E-003  8.597E-001  3.640E-005  3.883E-003  8.598E-001  8.588E-003  3.880E-003  8.598E-001  1.936E-002  3.877E-003  8.598E-001  3.294E-002  3.875E-003  8.598E-001  5.004E-002  3.873E-003  8.598E-001  3.923E-005  1.189E-002  8.599E-001  8.591E-003  1.189E-002  8.599E-001  1.937E-002  1.189E-002  8.599E-001  3.294E-002  1.189E-002  8.599E-001  5.004E-002  1.188E-002  8.599E-001  4.321E-005  2.322E-002  8.600E-001  8.594E-003  2.322E-002  8.600E-001  1.937E-002  2.322E-002  8.600E-001  3.294E-002  2.321E-002  8.600E-001  5.004E-002  2.321E-002  8.600E-001  3.664E-005 -1.987E-003  8.797E-001  4.313E-003 -1.989E-003  8.797E-001  8.589E-003 -1.990E-003  8.797E-001  1.398E-002 -1.991E-003  8.797E-001  1.936E-002 -1.992E-003  8.797E-001  2.615E-002 -1.994E-003  8.797E-001  3.294E-002 -1.995E-003  8.797E-001  4.149E-002 -1.996E-003  8.797E-001  5.004E-002 -1.996E-003  8.797E-001  3.755E-005  8.449E-004  8.798E-001  8.590E-003  8.424E-004  8.798E-001  1.936E-002  8.398E-004  8.798E-001  3.294E-002  8.375E-004  8.798E-001  5.004E-002  8.361E-004  8.798E-001  3.846E-005  3.677E-003  8.798E-001  4.314E-003  3.676E-003  8.798E-001  8.590E-003  3.674E-003  8.798E-001  1.398E-002  3.673E-003  8.798E-001  1.937E-002  3.672E-003  8.798E-001  2.615E-002  3.671E-003  8.798E-001  3.294E-002  3.670E-003  8.798E-001  4.149E-002  3.669E-003  8.798E-001  5.004E-002  3.668E-003  8.798E-001  3.976E-005  7.682E-003  8.798E-001  8.591E-003  7.680E-003  8.798E-001  1.937E-002  7.677E-003  8.798E-001  3.294E-002  7.675E-003  8.798E-001  5.004E-002  7.673E-003  8.798E-001  4.105E-005  1.169E-002  8.799E-001  4.317E-003  1.169E-002  8.799E-001  8.593E-003  1.168E-002  8.799E-001  1.398E-002  1.168E-002  8.799E-001  1.937E-002  1.168E-002  8.799E-001  2.615E-002  1.168E-002  8.799E-001  3.294E-002  1.168E-002  8.799E-001  4.149E-002  1.168E-002  8.799E-001  5.004E-002  1.168E-002  8.799E-001  4.286E-005  1.735E-002  8.799E-001  8.594E-003  1.735E-002  8.799E-001  1.937E-002  1.735E-002  8.799E-001  3.294E-002  1.734E-002  8.799E-001  5.004E-002  1.734E-002  8.799E-001  4.466E-005  2.301E-002  8.800E-001  4.320E-003  2.301E-002  8.800E-001  8.596E-003  2.301E-002  8.800E-001  1.398E-002  2.301E-002  8.800E-001  1.937E-002  2.301E-002  8.800E-001  2.616E-002  2.301E-002  8.800E-001  3.294E-002  2.301E-002  8.800E-001  4.149E-002  2.301E-002  8.800E-001  5.004E-002  2.301E-002  8.800E-001  3.897E-005 -2.199E-003  8.997E-001  8.591E-003 -2.202E-003  8.997E-001  1.937E-002 -2.204E-003  8.997E-001  3.294E-002 -2.206E-003  8.997E-001  5.005E-002 -2.207E-003  8.997E-001  4.059E-005  3.465E-003  8.998E-001  8.592E-003  3.462E-003  8.998E-001  1.937E-002  3.460E-003  8.998E-001  3.294E-002  3.458E-003  8.998E-001  5.005E-002  3.457E-003  8.998E-001  4.287E-005  1.147E-002  8.999E-001  8.594E-003  1.147E-002  8.999E-001  1.937E-002  1.147E-002  8.999E-001  3.294E-002  1.147E-002  8.999E-001  5.005E-002  1.147E-002  8.999E-001  4.608E-005  2.280E-002  9.000E-001  8.597E-003  2.280E-002  9.000E-001  1.937E-002  2.280E-002  9.000E-001  3.294E-002  2.280E-002  9.000E-001  5.005E-002  2.279E-002  9.000E-001  4.140E-005 -2.417E-003  9.197E-001  4.317E-003 -2.418E-003  9.197E-001  8.593E-003 -2.419E-003  9.197E-001  1.398E-002 -2.420E-003  9.197E-001  1.937E-002 -2.421E-003  9.197E-001  2.616E-002 -2.422E-003  9.197E-001  3.294E-002 -2.423E-003  9.197E-001  4.149E-002 -2.424E-003  9.197E-001  5.005E-002 -2.424E-003  9.197E-001  4.210E-005  4.148E-004  9.198E-001  8.594E-003  4.128E-004  9.198E-001  1.937E-002  4.108E-004  9.198E-001  3.294E-002  4.090E-004  9.198E-001  5.005E-002  4.078E-004  9.198E-001  4.280E-005  3.247E-003  9.198E-001  4.319E-003  3.246E-003  9.198E-001  8.594E-003  3.245E-003  9.198E-001  1.398E-002  3.244E-003  9.198E-001  1.937E-002  3.243E-003  9.198E-001  2.616E-002  3.242E-003  9.198E-001  3.294E-002  3.241E-003  9.198E-001  4.150E-002  3.240E-003  9.198E-001  5.005E-002  3.240E-003  9.198E-001  4.379E-005  7.252E-003  9.198E-001  8.595E-003  7.250E-003  9.198E-001  1.937E-002  7.248E-003  9.198E-001  3.294E-002  7.246E-003  9.198E-001  5.005E-002  7.245E-003  9.198E-001  4.478E-005  1.126E-002  9.199E-001  4.320E-003  1.126E-002  9.199E-001  8.596E-003  1.125E-002  9.199E-001  1.398E-002  1.125E-002  9.199E-001  1.937E-002  1.125E-002  9.199E-001  2.616E-002  1.125E-002  9.199E-001  3.294E-002  1.125E-002  9.199E-001  4.150E-002  1.125E-002  9.199E-001  5.005E-002  1.125E-002  9.199E-001  4.616E-005  1.692E-002  9.199E-001  8.597E-003  1.692E-002  9.199E-001  1.937E-002  1.692E-002  9.199E-001  3.295E-002  1.691E-002  9.199E-001  5.005E-002  1.691E-002  9.199E-001  4.753E-005  2.258E-002  9.200E-001  4.323E-003  2.258E-002  9.200E-001  8.598E-003  2.258E-002  9.200E-001  1.399E-002  2.258E-002  9.200E-001  1.937E-002  2.258E-002  9.200E-001  2.616E-002  2.258E-002  9.200E-001  3.295E-002  2.258E-002  9.200E-001  4.150E-002  2.258E-002  9.200E-001  5.005E-002  2.258E-002  9.200E-001  4.392E-005 -2.640E-003  9.397E-001  8.596E-003 -2.641E-003  9.397E-001  1.937E-002 -2.643E-003  9.397E-001  3.294E-002 -2.645E-003  9.397E-001  5.005E-002 -2.646E-003  9.397E-001  4.506E-005  3.024E-003  9.398E-001  8.597E-003  3.023E-003  9.398E-001  1.937E-002  3.021E-003  9.398E-001  3.295E-002  3.019E-003  9.398E-001  5.005E-002  3.018E-003  9.398E-001  4.668E-005  1.103E-002  9.399E-001  8.598E-003  1.103E-002  9.399E-001  1.937E-002  1.103E-002  9.399E-001  3.295E-002  1.103E-002  9.399E-001  5.005E-002  1.103E-002  9.399E-001  4.895E-005  2.236E-002  9.400E-001  8.600E-003  2.236E-002  9.400E-001  1.937E-002  2.236E-002  9.400E-001  3.295E-002  2.236E-002  9.400E-001  5.005E-002  2.236E-002  9.400E-001  4.646E-005 -2.866E-003  9.597E-001  4.322E-003 -2.867E-003  9.597E-001  8.598E-003 -2.867E-003  9.597E-001  1.398E-002 -2.868E-003  9.597E-001  1.937E-002 -2.869E-003  9.597E-001  2.616E-002 -2.869E-003  9.597E-001  3.295E-002 -2.870E-003  9.597E-001  4.150E-002 -2.871E-003  9.597E-001  5.005E-002 -2.871E-003  9.597E-001  4.692E-005 -3.411E-005  9.598E-001  8.598E-003 -3.539E-005  9.598E-001  1.937E-002 -3.676E-005  9.598E-001  3.295E-002 -3.809E-005  9.598E-001  5.005E-002 -3.909E-005  9.597E-001  4.737E-005  2.798E-003  9.598E-001  4.323E-003  2.797E-003  9.598E-001  8.599E-003  2.797E-003  9.598E-001  1.399E-002  2.796E-003  9.598E-001  1.937E-002  2.795E-003  9.598E-001  2.616E-002  2.794E-003  9.598E-001  3.295E-002  2.794E-003  9.598E-001  4.150E-002  2.793E-003  9.598E-001  5.005E-002  2.793E-003  9.598E-001  4.802E-005  6.803E-003  9.598E-001  8.599E-003  6.801E-003  9.598E-001  1.937E-002  6.800E-003  9.598E-001  3.295E-002  6.799E-003  9.598E-001  5.005E-002  6.798E-003  9.598E-001  4.866E-005  1.081E-002  9.599E-001  4.324E-003  1.081E-002  9.599E-001  8.600E-003  1.081E-002  9.599E-001  1.399E-002  1.081E-002  9.599E-001  1.937E-002  1.080E-002  9.599E-001  2.616E-002  1.080E-002  9.599E-001  3.295E-002  1.080E-002  9.599E-001  4.150E-002  1.080E-002  9.599E-001  5.005E-002  1.080E-002  9.599E-001  4.955E-005  1.647E-002  9.599E-001  8.601E-003  1.647E-002  9.599E-001  1.937E-002  1.647E-002  9.599E-001  3.295E-002  1.647E-002  9.599E-001  5.005E-002  1.647E-002  9.599E-001  5.041E-005  2.213E-002  9.600E-001  4.326E-003  2.213E-002  9.600E-001  8.601E-003  2.213E-002  9.600E-001  1.399E-002  2.213E-002  9.600E-001  1.937E-002  2.213E-002  9.600E-001  2.616E-002  2.213E-002  9.600E-001  3.295E-002  2.213E-002  9.600E-001  4.150E-002  2.213E-002  9.600E-001  5.005E-002  2.213E-002  9.600E-001  4.894E-005 -3.095E-003  9.797E-001  8.600E-003 -3.096E-003  9.797E-001  1.937E-002 -3.097E-003  9.797E-001  3.295E-002 -3.098E-003  9.797E-001  5.005E-002 -3.099E-003  9.797E-001  4.962E-005  2.569E-003  9.798E-001  8.601E-003  2.568E-003  9.798E-001  1.937E-002  2.567E-003  9.798E-001  3.295E-002  2.566E-003  9.798E-001  5.005E-002  2.565E-003  9.798E-001  5.055E-005  1.058E-002  9.799E-001  8.602E-003  1.058E-002  9.799E-001  1.938E-002  1.058E-002  9.799E-001  3.295E-002  1.058E-002  9.799E-001  5.005E-002  1.057E-002  9.799E-001  5.183E-005  2.191E-002  9.800E-001  8.603E-003  2.190E-002  9.800E-001  1.938E-002  2.190E-002  9.800E-001  3.295E-002  2.190E-002  9.800E-001  5.005E-002  2.190E-002  9.800E-001  5.129E-005 -3.325E-003  9.997E-001  4.327E-003 -3.325E-003  9.997E-001  8.602E-003 -3.326E-003  9.997E-001  1.399E-002 -3.326E-003  9.997E-001  1.938E-002 -3.327E-003  9.997E-001  2.616E-002 -3.327E-003  9.997E-001  3.295E-002 -3.328E-003  9.997E-001  4.150E-002 -3.328E-003  9.997E-001  5.005E-002 -3.329E-003  9.997E-001  5.158E-005 -4.931E-004  9.998E-001  8.602E-003 -4.939E-004  9.997E-001  1.938E-002 -4.949E-004  9.997E-001  3.295E-002 -4.960E-004  9.997E-001  5.005E-002 -4.969E-004  9.997E-001  5.188E-005  2.339E-003  9.998E-001  4.327E-003  2.338E-003  9.998E-001  8.603E-003  2.338E-003  9.998E-001  1.399E-002  2.337E-003  9.998E-001  1.938E-002  2.337E-003  9.998E-001  2.616E-002  2.336E-003  9.998E-001  3.295E-002  2.336E-003  9.998E-001  4.150E-002  2.335E-003  9.998E-001  5.005E-002  2.335E-003  9.998E-001  5.225E-005  6.343E-003  9.998E-001  8.603E-003  6.343E-003  9.998E-001  1.938E-002  6.342E-003  9.998E-001  3.295E-002  6.341E-003  9.998E-001  5.005E-002  6.340E-003  9.998E-001  5.259E-005  1.035E-002  9.999E-001  4.328E-003  1.035E-002  9.999E-001  8.603E-003  1.035E-002  9.999E-001  1.399E-002  1.035E-002  9.999E-001  1.938E-002  1.035E-002  9.999E-001  2.616E-002  1.035E-002  9.999E-001  3.295E-002  1.035E-002  9.999E-001  4.150E-002  1.034E-002  9.999E-001  5.005E-002  1.034E-002  9.999E-001  5.297E-005  1.601E-002  9.999E-001  8.604E-003  1.601E-002  9.999E-001  1.938E-002  1.601E-002  9.999E-001  3.295E-002  1.601E-002  9.999E-001  5.005E-002  1.601E-002  9.999E-001  5.331E-005  2.168E-002  1.000E+000  4.329E-003  2.168E-002  1.000E+000  8.604E-003  2.167E-002  1.000E+000  1.399E-002  2.167E-002  1.000E+000  1.938E-002  2.167E-002  1.000E+000  2.616E-002  2.167E-002  1.000E+000  3.295E-002  2.167E-002  1.000E+000  4.150E-002  2.167E-002  1.000E+000  5.005E-002  2.167E-002  1.000E+000
        </DataArray>
      </Points>
      <Cells>
        <DataArray type="Int32" Name="connectivity" format="ascii">
 0 2 16 14 71 73 87 85 1 10 15 9 51 52 57 56 72 81 86 80 2 4 18 16 73 75 89 87 3 11 17 10 52 53 58 57 74 82 88 81 4 6 20 18 75 77 91 89 5 12 19 11 53 54 59 58 76 83 90 82 6 8 22 20 77 79 93 91 7 13 21 12 54 55 60 59 78 84 92 83 14 16 30 28 85 87 101 99 15 24 29 23 56 57 62 61 86 95 100 94 16 18 32 30 87 89 103 101 17 25 31 24 57 58 63 62 88 96 102 95 18 20 34 32 89 91 105 103 19 26 33 25 58 59 64 63 90 97 104 96 20 22 36 34 91 93 107 105 21 27 35 26 59 60 65 64 92 98 106 97 28 30 44 42 99 101 115 113 29 38 43 37 61 62 67 66 100 109 114 108 30 32 46 44 101 103 117 115 31 39 45 38 62 63 68 67 102 110 116 109 32 34 48 46 103 105 119 117 33 40 47 39 63 64 69 68 104 111 118 110 34 36 50 48 105 107 121 119 35 41 49 40 64 65 70 69 106 112 120 111 71 73 87 85 142 144 158 156 72 81 86 80 122 123 128 127 143 152 157 151 73 75 89 87 144 146 160 158 74 82 88 81 123 124 129 128 145 153 159 152 75 77 91 89 146 148 162 160 76 83 90 82 124 125 130 129 147 154 161 153 77 79 93 91 148 150 164 162 78 84 92 83 125 126 131 130 149 155 163 154 85 87 101 99 156 158 172 170 86 95 100 94 127 128 133 132 157 166 171 165 87 89 103 101 158 160 174 172 88 96 102 95 128 129 134 133 159 167 173 166 89 91 105 103 160 162 176 174 90 97 104 96 129 130 135 134 161 168 175 167 91 93 107 105 162 164 178 176 92 98 106 97 130 131 136 135 163 169 177 168 99 101 115 113 170 172 186 184 100 109 114 108 132 133 138 137 171 180 185 179 101 103 117 115 172 174 188 186 102 110 116 109 133 134 139 138 173 181 187 180 103 105 119 117 174 176 190 188 104 111 118 110 134 135 140 139 175 182 189 181 105 107 121 119 176 178 192 190 106 112 120 111 135 136 141 140 177 183 191 182 142 144 158 156 213 215 229 227 143 152 157 151 193 194 199 198 214 223 228 222 144 146 160 158 215 217 231 229 145 153 159 152 194 195 200 199 216 224 230 223 146 148 162 160 217 219 233 231 147 154 161 153 195 196 201 200 218 225 232 224 148 150 164 162 219 221 235 233 149 155 163 154 196 197 202 201 220 226 234 225 156 158 172 170 227 229 243 241 157 166 171 165 198 199 204 203 228 237 242 236 158 160 174 172 229 231 245 243 159 167 173 166 199 200 205 204 230 238 244 237 160 162 176 174 231 233 247 245 161 168 175 167 200 201 206 205 232 239 246 238 162 164 178 176 233 235 249 247 163 169 177 168 201 202 207 206 234 240 248 239 170 172 186 184 241 243 257 255 171 180 185 179 203 204 209 208 242 251 256 250 172 174 188 186 243 245 259 257 173 181 187 180 204 205 210 209 244 252 258 251 174 176 190 188 245 247 261 259 175 182 189 181 205 206 211 210 246 253 260 252 176 178 192 190 247 249 263 261 177 183 191 182 206 207 212 211 248 254 262 253 213 215 229 227 284 286 300 298 214 223 228 222 264 265 270 269 285 294 299 293 215 217 231 229 286 288 302 300 216 224 230 223 265 266 271 270 287 295 301 294 217 219 233 231 288 290 304 302 218 225 232 224 266 267 272 271 289 296 303 295 219 221 235 233 290 292 306 304 220 226 234 225 267 268 273 272 291 297 305 296 227 229 243 241 298 300 314 312 228 237 242 236 269 270 275 274 299 308 313 307 229 231 245 243 300 302 316 314 230 238 244 237 270 271 276 275 301 309 315 308 231 233 247 245 302 304 318 316 232 239 246 238 271 272 277 276 303 310 317 309 233 235 249 247 304 306 320 318 234 240 248 239 272 273 278 277 305 311 319 310 241 243 257 255 312 314 328 326 242 251 256 250 274 275 280 279 313 322 327 321 243 245 259 257 314 316 330 328 244 252 258 251 275 276 281 280 315 323 329 322 245 247 261 259 316 318 332 330 246 253 260 252 276 277 282 281 317 324 331 323 247 249 263 261 318 320 334 332 248 254 262 253 277 278 283 282 319 325 333 324 284 286 300 298 355 357 371 369 285 294 299 293 335 336 341 340 356 365 370 364 286 288 302 300 357 359 373 371 287 295 301 294 336 337 342 341 358 366 372 365 288 290 304 302 359 361 375 373 289 296 303 295 337 338 343 342 360 367 374 366 290 292 306 304 361 363 377 375 291 297 305 296 338 339 344 343 362 368 376 367 298 300 314 312 369 371 385 383 299 308 313 307 340 341 346 345 370 379 384 378 300 302 316 314 371 373 387 385 301 309 315 308 341 342 347 346 372 380 386 379 302 304 318 316 373 375 389 387 303 310 317 309 342 343 348 347 374 381 388 380 304 306 320 318 375 377 391 389 305 311 319 310 343 344 349 348 376 382 390 381 312 314 328 326 383 385 399 397 313 322 327 321 345 346 351 350 384 393 398 392 314 316 330 328 385 387 401 399 315 323 329 322 346 347 352 351 386 394 400 393 316 318 332 330 387 389 403 401 317 324 331 323 347 348 353 352 388 395 402 394 318 320 334 332 389 391 405 403 319 325 333 324 348 349 354 353 390 396 404 395 355 357 371 369 426 428 442 440 356 365 370 364 406 407 412 411 427 436 441 435 357 359 373 371 428 430 444 442 358 366 372 365 407 408 413 412 429 437 443 436 359 361 375 373 430 432 446 444 360 367 374 366 408 409 414 413 431 438 445 437 361 363 377 375 432 434 448 446 362 368 376 367 409 410 415 414 433 439 447 438 369 371 385 383 440 442 456 454 370 379 384 378 411 412 417 416 441 450 455 449 371 373 387 385 442 444 458 456 372 380 386 379 412 413 418 417 443 451 457 450 373 375 389 387 444 446 460 458 374 381 388 380 413 414 419 418 445 452 459 451 375 377 391 389 446 448 462 460 376 382 390 381 414 415 420 419 447 453 461 452 383 385 399 397 454 456 470 468 384 393 398 392 416 417 422 421 455 464 469 463 385 387 401 399 456 458 472 470 386 394 400 393 417 418 423 422 457 465 471 464 387 389 403 401 458 460 474 472 388 395 402 394 418 419 424 423 459 466 473 465 389 391 405 403 460 462 476 474 390 396 404 395 419 420 425 424 461 467 475 466 426 428 442 440 497 499 513 511 427 436 441 435 477 478 483 482 498 507 512 506 428 430 444 442 499 501 515 513 429 437 443 436 478 479 484 483 500 508 514 507 430 432 446 444 501 503 517 515 431 438 445 437 479 480 485 484 502 509 516 508 432 434 448 446 503 505 519 517 433 439 447 438 480 481 486 485 504 510 518 509 440 442 456 454 511 513 527 525 441 450 455 449 482 483 488 487 512 521 526 520 442 444 458 456 513 515 529 527 443 451 457 450 483 484 489 488 514 522 528 521 444 446 460 458 515 517 531 529 445 452 459 451 484 485 490 489 516 523 530 522 446 448 462 460 517 519 533 531 447 453 461 452 485 486 491 490 518 524 532 523 454 456 470 468 525 527 541 539 455 464 469 463 487 488 493 492 526 535 540 534 456 458 472 470 527 529 543 541 457 465 471 464 488 489 494 493 528 536 542 535 458 460 474 472 529 531 545 543 459 466 473 465 489 490 495 494 530 537 544 536 460 462 476 474 531 533 547 545 461 467 475 466 490 491 496 495 532 538 546 537 497 499 513 511 568 570 584 582 498 507 512 506 548 549 554 553 569 578 583 577 499 501 515 513 570 572 586 584 500 508 514 507 549 550 555 554 571 579 585 578 501 503 517 515 572 574 588 586 502 509 516 508 550 551 556 555 573 580 587 579 503 505 519 517 574 576 590 588 504 510 518 509 551 552 557 556 575 581 589 580 511 513 527 525 582 584 598 596 512 521 526 520 553 554 559 558 583 592 597 591 513 515 529 527 584 586 600 598 514 522 528 521 554 555 560 559 585 593 599 592 515 517 531 529 586 588 602 600 516 523 530 522 555 556 561 560 587 594 601 593 517 519 533 531 588 590 604 602 518 524 532 523 556 557 562 561 589 595 603 594 525 527 541 539 596 598 612 610 526 535 540 534 558 559 564 563 597 606 611 605 527 529 543 541 598 600 614 612 528 536 542 535 559 560 565 564 599 607 613 606 529 531 545 543 600 602 616 614 530 537 544 536 560 561 566 565 601 608 615 607 531 533 547 545 602 604 618 616 532 538 546 537 561 562 567 566 603 609 617 608 568 570 584 582 639 641 655 653 569 578 583 577 619 620 625 624 640 649 654 648 570 572 586 584 641 643 657 655 571 579 585 578 620 621 626 625 642 650 656 649 572 574 588 586 643 645 659 657 573 580 587 579 621 622 627 626 644 651 658 650 574 576 590 588 645 647 661 659 575 581 589 580 622 623 628 627 646 652 660 651 582 584 598 596 653 655 669 667 583 592 597 591 624 625 630 629 654 663 668 662 584 586 600 598 655 657 671 669 585 593 599 592 625 626 631 630 656 664 670 663 586 588 602 600 657 659 673 671 587 594 601 593 626 627 632 631 658 665 672 664 588 590 604 602 659 661 675 673 589 595 603 594 627 628 633 632 660 666 674 665 596 598 612 610 667 669 683 681 597 606 611 605 629 630 635 634 668 677 682 676 598 600 614 612 669 671 685 683 599 607 613 606 630 631 636 635 670 678 684 677 600 602 616 614 671 673 687 685 601 608 615 607 631 632 637 636 672 679 686 678 602 604 618 616 673 675 689 687 603 609 617 608 632 633 638 637 674 680 688 679 639 641 655 653 710 712 726 724 640 649 654 648 690 691 696 695 711 720 725 719 641 643 657 655 712 714 728 726 642 650 656 649 691 692 697 696 713 721 727 720 643 645 659 657 714 716 730 728 644 651 658 650 692 693 698 697 715 722 729 721 645 647 661 659 716 718 732 730 646 652 660 651 693 694 699 698 717 723 731 722 653 655 669 667 724 726 740 738 654 663 668 662 695 696 701 700 725 734 739 733 655 657 671 669 726 728 742 740 656 664 670 663 696 697 702 701 727 735 741 734 657 659 673 671 728 730 744 742 658 665 672 664 697 698 703 702 729 736 743 735 659 661 675 673 730 732 746 744 660 666 674 665 698 699 704 703 731 737 745 736 667 669 683 681 738 740 754 752 668 677 682 676 700 701 706 705 739 748 753 747 669 671 685 683 740 742 756 754 670 678 684 677 701 702 707 706 741 749 755 748 671 673 687 685 742 744 758 756 672 679 686 678 702 703 708 707 743 750 757 749 673 675 689 687 744 746 760 758 674 680 688 679 703 704 709 708 745 751 759 750 710 712 726 724 781 783 797 795 711 720 725 719 761 762 767 766 782 791 796 790 712 714 728 726 783 785 799 797 713 721 727 720 762 763 768 767 784 792 798 791 714 716 730 728 785 787 801 799 715 722 729 721 763 764 769 768 786 793 800 792 716 718 732 730 787 789 803 801 717 723 731 722 764 765 770 769 788 794 802 793 724 726 740 738 795 797 811 809 725 734 739 733 766 767 772 771 796 805 810 804 726 728 742 740 797 799 813 811 727 735 741 734 767 768 773 772 798 806 812 805 728 730 744 742 799 801 815 813 729 736 743 735 768 769 774 773 800 807 814 806 730 732 746 744 801 803 817 815 731 737 745 736 769 770 775 774 802 808 816 807 738 740 754 752 809 811 825 823 739 748 753 747 771 772 777 776 810 819 824 818 740 742 756 754 811 813 827 825 741 749 755 748 772 773 778 777 812 820 826 819 742 744 758 756 813 815 829 827 743 750 757 749 773 774 779 778 814 821 828 820 744 746 760 758 815 817 831 829 745 751 759 750 774 775 780 779 816 822 830 821 781 783 797 795 852 854 868 866 782 791 796 790 832 833 838 837 853 862 867 861 783 785 799 797 854 856 870 868 784 792 798 791 833 834 839 838 855 863 869 862 785 787 801 799 856 858 872 870 786 793 800 792 834 835 840 839 857 864 871 863 787 789 803 801 858 860 874 872 788 794 802 793 835 836 841 840 859 865 873 864 795 797 811 809 866 868 882 880 796 805 810 804 837 838 843 842 867 876 881 875 797 799 813 811 868 870 884 882 798 806 812 805 838 839 844 843 869 877 883 876 799 801 815 813 870 872 886 884 800 807 814 806 839 840 845 844 871 878 885 877 801 803 817 815 872 874 888 886 802 808 816 807 840 841 846 845 873 879 887 878 809 811 825 823 880 882 896 894 810 819 824 818 842 843 848 847 881 890 895 889 811 813 827 825 882 884 898 896 812 820 826 819 843 844 849 848 883 891 897 890 813 815 829 827 884 886 900 898 814 821 828 820 844 845 850 849 885 892 899 891 815 817 831 829 886 888 902 900 816 822 830 821 845 846 851 850 887 893 901 892 852 854 868 866 923 925 939 937 853 862 867 861 903 904 909 908 924 933 938 932 854 856 870 868 925 927 941 939 855 863 869 862 904 905 910 909 926 934 940 933 856 858 872 870 927 929 943 941 857 864 871 863 905 906 911 910 928 935 942 934 858 860 874 872 929 931 945 943 859 865 873 864 906 907 912 911 930 936 944 935 866 868 882 880 937 939 953 951 867 876 881 875 908 909 914 913 938 947 952 946 868 870 884 882 939 941 955 953 869 877 883 876 909 910 915 914 940 948 954 947 870 872 886 884 941 943 957 955 871 878 885 877 910 911 916 915 942 949 956 948 872 874 888 886 943 945 959 957 873 879 887 878 911 912 917 916 944 950 958 949 880 882 896 894 951 953 967 965 881 890 895 889 913 914 919 918 952 961 966 960 882 884 898 896 953 955 969 967 883 891 897 890 914 915 920 919 954 962 968 961 884 886 900 898 955 957 971 969 885 892 899 891 915 916 921 920 956 963 970 962 886 888 902 900 957 959 973 971 887 893 901 892 916 917 922 921 958 964 972 963 923 925 939 937 994 996 1010 1008 924 933 938 932 974 975 980 979 995 1004 1009 1003 925 927 941 939 996 998 1012 1010 926 934 940 933 975 976 981 980 997 1005 1011 1004 927 929 943 941 998 1000 1014 1012 928 935 942 934 976 977 982 981 999 1006 1013 1005 929 931 945 943 1000 1002 1016 1014 930 936 944 935 977 978 983 982 1001 1007 1015 1006 937 939 953 951 1008 1010 1024 1022 938 947 952 946 979 980 985 984 1009 1018 1023 1017 939 941 955 953 1010 1012 1026 1024 940 948 954 947 980 981 986 985 1011 1019 1025 1018 941 943 957 955 1012 1014 1028 1026 942 949 956 948 981 982 987 986 1013 1020 1027 1019 943 945 959 957 1014 1016 1030 1028 944 950 958 949 982 983 988 987 1015 1021 1029 1020 951 953 967 965 1022 1024 1038 1036 952 961 966 960 984 985 990 989 1023 1032 1037 1031 953 955 969 967 1024 1026 1040 1038 954 962 968 961 985 986 991 990 1025 1033 1039 1032 955 957 971 969 1026 1028 1042 1040 956 963 970 962 986 987 992 991 1027 1034 1041 1033 957 959 973 971 1028 1030 1044 1042 958 964 972 963 987 988 993 992 1029 1035 1043 1034 994 996 1010 1008 1065 1067 1081 1079 995 1004 1009 1003 1045 1046 1051 1050 1066 1075 1080 1074 996 998 1012 1010 1067 1069 1083 1081 997 1005 1011 1004 1046 1047 1052 1051 1068 1076 1082 1075 998 1000 1014 1012 1069 1071 1085 1083 999 1006 1013 1005 1047 1048 1053 1052 1070 1077 1084 1076 1000 1002 1016 1014 1071 1073 1087 1085 1001 1007 1015 1006 1048 1049 1054 1053 1072 1078 1086 1077 1008 1010 1024 1022 1079 1081 1095 1093 1009 1018 1023 1017 1050 1051 1056 1055 1080 1089 1094 1088 1010 1012 1026 1024 1081 1083 1097 1095 1011 1019 1025 1018 1051 1052 1057 1056 1082 1090 1096 1089 1012 1014 1028 1026 1083 1085 1099 1097 1013 1020 1027 1019 1052 1053 1058 1057 1084 1091 1098 1090 1014 1016 1030 1028 1085 1087 1101 1099 1015 1021 1029 1020 1053 1054 1059 1058 1086 1092 1100 1091 1022 1024 1038 1036 1093 1095 1109 1107 1023 1032 1037 1031 1055 1056 1061 1060 1094 1103 1108 1102 1024 1026 1040 1038 1095 1097 1111 1109 1025 1033 1039 1032 1056 1057 1062 1061 1096 1104 1110 1103 1026 1028 1042 1040 1097 1099 1113 1111 1027 1034 1041 1033 1057 1058 1063 1062 1098 1105 1112 1104 1028 1030 1044 1042 1099 1101 1115 1113 1029 1035 1043 1034 1058 1059 1064 1063 1100 1106 1114 1105 1065 1067 1081 1079 1136 1138 1152 1150 1066 1075 1080 1074 1116 1117 1122 1121 1137 1146 1151 1145 1067 1069 1083 1081 1138 1140 1154 1152 1068 1076 1082 1075 1117 1118 1123 1122 1139 1147 1153 1146 1069 1071 1085 1083 1140 1142 1156 1154 1070 1077 1084 1076 1118 1119 1124 1123 1141 1148 1155 1147 1071 1073 1087 1085 1142 1144 1158 1156 1072 1078 1086 1077 1119 1120 1125 1124 1143 1149 1157 1148 1079 1081 1095 1093 1150 1152 1166 1164 1080 1089 1094 1088 1121 1122 1127 1126 1151 1160 1165 1159 1081 1083 1097 1095 1152 1154 1168 1166 1082 1090 1096 1089 1122 1123 1128 1127 1153 1161 1167 1160 1083 1085 1099 1097 1154 1156 1170 1168 1084 1091 1098 1090 1123 1124 1129 1128 1155 1162 1169 1161 1085 1087 1101 1099 1156 1158 1172 1170 1086 1092 1100 1091 1124 1125 1130 1129 1157 1163 1171 1162 1093 1095 1109 1107 1164 1166 1180 1178 1094 1103 1108 1102 1126 1127 1132 1131 1165 1174 1179 1173 1095 1097 1111 1109 1166 1168 1182 1180 1096 1104 1110 1103 1127 1128 1133 1132 1167 1175 1181 1174 1097 1099 1113 1111 1168 1170 1184 1182 1098 1105 1112 1104 1128 1129 1134 1133 1169 1176 1183 1175 1099 1101 1115 1113 1170 1172 1186 1184 1100 1106 1114 1105 1129 1130 1135 1134 1171 1177 1185 1176 1136 1138 1152 1150 1207 1209 1223 1221 1137 1146 1151 1145 1187 1188 1193 1192 1208 1217 1222 1216 1138 1140 1154 1152 1209 1211 1225 1223 1139 1147 1153 1146 1188 1189 1194 1193 1210 1218 1224 1217 1140 1142 1156 1154 1211 1213 1227 1225 1141 1148 1155 1147 1189 1190 1195 1194 1212 1219 1226 1218 1142 1144 1158 1156 1213 1215 1229 1227 1143 1149 1157 1148 1190 1191 1196 1195 1214 1220 1228 1219 1150 1152 1166 1164 1221 1223 1237 1235 1151 1160 1165 1159 1192 1193 1198 1197 1222 1231 1236 1230 1152 1154 1168 1166 1223 1225 1239 1237 1153 1161 1167 1160 1193 1194 1199 1198 1224 1232 1238 1231 1154 1156 1170 1168 1225 1227 1241 1239 1155 1162 1169 1161 1194 1195 1200 1199 1226 1233 1240 1232 1156 1158 1172 1170 1227 1229 1243 1241 1157 1163 1171 1162 1195 1196 1201 1200 1228 1234 1242 1233 1164 1166 1180 1178 1235 1237 1251 1249 1165 1174 1179 1173 1197 1198 1203 1202 1236 1245 1250 1244 1166 1168 1182 1180 1237 1239 1253 1251 1167 1175 1181 1174 1198 1199 1204 1203 1238 1246 1252 1245 1168 1170 1184 1182 1239 1241 1255 1253 1169 1176 1183 1175 1199 1200 1205 1204 1240 1247 1254 1246 1170 1172 1186 1184 1241 1243 1257 1255 1171 1177 1185 1176 1200 1201 1206 1205 1242 1248 1256 1247 1207 1209 1223 1221 1278 1280 1294 1292 1208 1217 1222 1216 1258 1259 1264 1263 1279 1288 1293 1287 1209 1211 1225 1223 1280 1282 1296 1294 1210 1218 1224 1217 1259 1260 1265 1264 1281 1289 1295 1288 1211 1213 1227 1225 1282 1284 1298 1296 1212 1219 1226 1218 1260 1261 1266 1265 1283 1290 1297 1289 1213 1215 1229 1227 1284 1286 1300 1298 1214 1220 1228 1219 1261 1262 1267 1266 1285 1291 1299 1290 1221 1223 1237 1235 1292 1294 1308 1306 1222 1231 1236 1230 1263 1264 1269 1268 1293 1302 1307 1301 1223 1225 1239 1237 1294 1296 1310 1308 1224 1232 1238 1231 1264 1265 1270 1269 1295 1303 1309 1302 1225 1227 1241 1239 1296 1298 1312 1310 1226 1233 1240 1232 1265 1266 1271 1270 1297 1304 1311 1303 1227 1229 1243 1241 1298 1300 1314 1312 1228 1234 1242 1233 1266 1267 1272 1271 1299 1305 1313 1304 1235 1237 1251 1249 1306 1308 1322 1320 1236 1245 1250 1244 1268 1269 1274 1273 1307 1316 1321 1315 1237 1239 1253 1251 1308 1310 1324 1322 1238 1246 1252 1245 1269 1270 1275 1274 1309 1317 1323 1316 1239 1241 1255 1253 1310 1312 1326 1324 1240 1247 1254 1246 1270 1271 1276 1275 1311 1318 1325 1317 1241 1243 1257 1255 1312 1314 1328 1326 1242 1248 1256 1247 1271 1272 1277 1276 1313 1319 1327 1318 1278 1280 1294 1292 1349 1351 1365 1363 1279 1288 1293 1287 1329 1330 1335 1334 1350 1359 1364 1358 1280 1282 1296 1294 1351 1353 1367 1365 1281 1289 1295 1288 1330 1331 1336 1335 1352 1360 1366 1359 1282 1284 1298 1296 1353 1355 1369 1367 1283 1290 1297 1289 1331 1332 1337 1336 1354 1361 1368 1360 1284 1286 1300 1298 1355 1357 1371 1369 1285 1291 1299 1290 1332 1333 1338 1337 1356 1362 1370 1361 1292 1294 1308 1306 1363 1365 1379 1377 1293 1302 1307 1301 1334 1335 1340 1339 1364 1373 1378 1372 1294 1296 1310 1308 1365 1367 1381 1379 1295 1303 1309 1302 1335 1336 1341 1340 1366 1374 1380 1373 1296 1298 1312 1310 1367 1369 1383 1381 1297 1304 1311 1303 1336 1337 1342 1341 1368 1375 1382 1374 1298 1300 1314 1312 1369 1371 1385 1383 1299 1305 1313 1304 1337 1338 1343 1342 1370 1376 1384 1375 1306 1308 1322 1320 1377 1379 1393 1391 1307 1316 1321 1315 1339 1340 1345 1344 1378 1387 1392 1386 1308 1310 1324 1322 1379 1381 1395 1393 1309 1317 1323 1316 1340 1341 1346 1345 1380 1388 1394 1387 1310 1312 1326 1324 1381 1383 1397 1395 1311 1318 1325 1317 1341 1342 1347 1346 1382 1389 1396 1388 1312 1314 1328 1326 1383 1385 1399 1397 1313 1319 1327 1318 1342 1343 1348 1347 1384 1390 1398 1389 1349 1351 1365 1363 1420 1422 1436 1434 1350 1359 1364 1358 1400 1401 1406 1405 1421 1430 1435 1429 1351 1353 1367 1365 1422 1424 1438 1436 1352 1360 1366 1359 1401 1402 1407 1406 1423 1431 1437 1430 1353 1355 1369 1367 1424 1426 1440 1438 1354 1361 1368 1360 1402 1403 1408 1407 1425 1432 1439 1431 1355 1357 1371 1369 1426 1428 1442 1440 1356 1362 1370 1361 1403 1404 1409 1408 1427 1433 1441 1432 1363 1365 1379 1377 1434 1436 1450 1448 1364 1373 1378 1372 1405 1406 1411 1410 1435 1444 1449 1443 1365 1367 1381 1379 1436 1438 1452 1450 1366 1374 1380 1373 1406 1407 1412 1411 1437 1445 1451 1444 1367 1369 1383 1381 1438 1440 1454 1452 1368 1375 1382 1374 1407 1408 1413 1412 1439 1446 1453 1445 1369 1371 1385 1383 1440 1442 1456 1454 1370 1376 1384 1375 1408 1409 1414 1413 1441 1447 1455 1446 1377 1379 1393 1391 1448 1450 1464 1462 1378 1387 1392 1386 1410 1411 1416 1415 1449 1458 1463 1457 1379 1381 1395 1393 1450 1452 1466 1464 1380 1388 1394 1387 1411 1412 1417 1416 1451 1459 1465 1458 1381 1383 1397 1395 1452 1454 1468 1466 1382 1389 1396 1388 1412 1413 1418 1417 1453 1460 1467 1459 1383 1385 1399 1397 1454 1456 1470 1468 1384 1390 1398 1389 1413 1414 1419 1418 1455 1461 1469 1460 1420 1422 1436 1434 1491 1493 1507 1505 1421 1430 1435 1429 1471 1472 1477 1476 1492 1501 1506 1500 1422 1424 1438 1436 1493 1495 1509 1507 1423 1431 1437 1430 1472 1473 1478 1477 1494 1502 1508 1501 1424 1426 1440 1438 1495 1497 1511 1509 1425 1432 1439 1431 1473 1474 1479 1478 1496 1503 1510 1502 1426 1428 1442 1440 1497 1499 1513 1511 1427 1433 1441 1432 1474 1475 1480 1479 1498 1504 1512 1503 1434 1436 1450 1448 1505 1507 1521 1519 1435 1444 1449 1443 1476 1477 1482 1481 1506 1515 1520 1514 1436 1438 1452 1450 1507 1509 1523 1521 1437 1445 1451 1444 1477 1478 1483 1482 1508 1516 1522 1515 1438 1440 1454 1452 1509 1511 1525 1523 1439 1446 1453 1445 1478 1479 1484 1483 1510 1517 1524 1516 1440 1442 1456 1454 1511 1513 1527 1525 1441 1447 1455 1446 1479 1480 1485 1484 1512 1518 1526 1517 1448 1450 1464 1462 1519 1521 1535 1533 1449 1458 1463 1457 1481 1482 1487 1486 1520 1529 1534 1528 1450 1452 1466 1464 1521 1523 1537 1535 1451 1459 1465 1458 1482 1483 1488 1487 1522 1530 1536 1529 1452 1454 1468 1466 1523 1525 1539 1537 1453 1460 1467 1459 1483 1484 1489 1488 1524 1531 1538 1530 1454 1456 1470 1468 1525 1527 1541 1539 1455 1461 1469 1460 1484 1485 1490 1489 1526 1532 1540 1531 1491 1493 1507 1505 1562 1564 1578 1576 1492 1501 1506 1500 1542 1543 1548 1547 1563 1572 1577 1571 1493 1495 1509 1507 1564 1566 1580 1578 1494 1502 1508 1501 1543 1544 1549 1548 1565 1573 1579 1572 1495 1497 1511 1509 1566 1568 1582 1580 1496 1503 1510 1502 1544 1545 1550 1549 1567 1574 1581 1573 1497 1499 1513 1511 1568 1570 1584 1582 1498 1504 1512 1503 1545 1546 1551 1550 1569 1575 1583 1574 1505 1507 1521 1519 1576 1578 1592 1590 1506 1515 1520 1514 1547 1548 1553 1552 1577 1586 1591 1585 1507 1509 1523 1521 1578 1580 1594 1592 1508 1516 1522 1515 1548 1549 1554 1553 1579 1587 1593 1586 1509 1511 1525 1523 1580 1582 1596 1594 1510 1517 1524 1516 1549 1550 1555 1554 1581 1588 1595 1587 1511 1513 1527 1525 1582 1584 1598 1596 1512 1518 1526 1517 1550 1551 1556 1555 1583 1589 1597 1588 1519 1521 1535 1533 1590 1592 1606 1604 1520 1529 1534 1528 1552 1553 1558 1557 1591 1600 1605 1599 1521 1523 1537 1535 1592 1594 1608 1606 1522 1530 1536 1529 1553 1554 1559 1558 1593 1601 1607 1600 1523 1525 1539 1537 1594 1596 1610 1608 1524 1531 1538 1530 1554 1555 1560 1559 1595 1602 1609 1601 1525 1527 1541 1539 1596 1598 1612 1610 1526 1532 1540 1531 1555 1556 1561 1560 1597 1603 1611 1602 1562 1564 1578 1576 1633 1635 1649 1647 1563 1572 1577 1571 1613 1614 1619 1618 1634 1643 1648 1642 1564 1566 1580 1578 1635 1637 1651 1649 1565 1573 1579 1572 1614 1615 1620 1619 1636 1644 1650 1643 1566 1568 1582 1580 1637 1639 1653 1651 1567 1574 1581 1573 1615 1616 1621 1620 1638 1645 1652 1644 1568 1570 1584 1582 1639 1641 1655 1653 1569 1575 1583 1574 1616 1617 1622 1621 1640 1646 1654 1645 1576 1578 1592 1590 1647 1649 1663 1661 1577 1586 1591 1585 1618 1619 1624 1623 1648 1657 1662 1656 1578 1580 1594 1592 1649 1651 1665 1663 1579 1587 1593 1586 1619 1620 1625 1624 1650 1658 1664 1657 1580 1582 1596 1594 1651 1653 1667 1665 1581 1588 1595 1587 1620 1621 1626 1625 1652 1659 1666 1658 1582 1584 1598 1596 1653 1655 1669 1667 1583 1589 1597 1588 1621 1622 1627 1626 1654 1660 1668 1659 1590 1592 1606 1604 1661 1663 1677 1675 1591 1600 1605 1599 1623 1624 1629 1628 1662 1671 1676 1670 1592 1594 1608 1606 1663 1665 1679 1677 1593 1601 1607 1600 1624 1625 1630 1629 1664 1672 1678 1671 1594 1596 1610 1608 1665 1667 1681 1679 1595 1602 1609 1601 1625 1626 1631 1630 1666 1673 1680 1672 1596 1598 1612 1610 1667 1669 1683 1681 1597 1603 1611 1602 1626 1627 1632 1631 1668 1674 1682 1673 1633 1635 1649 1647 1704 1706 1720 1718 1634 1643 1648 1642 1684 1685 1690 1689 1705 1714 1719 1713 1635 1637 1651 1649 1706 1708 1722 1720 1636 1644 1650 1643 1685 1686 1691 1690 1707 1715 1721 1714 1637 1639 1653 1651 1708 1710 1724 1722 1638 1645 1652 1644 1686 1687 1692 1691 1709 1716 1723 1715 1639 1641 1655 1653 1710 1712 1726 1724 1640 1646 1654 1645 1687 1688 1693 1692 1711 1717 1725 1716 1647 1649 1663 1661 1718 1720 1734 1732 1648 1657 1662 1656 1689 1690 1695 1694 1719 1728 1733 1727 1649 1651 1665 1663 1720 1722 1736 1734 1650 1658 1664 1657 1690 1691 1696 1695 1721 1729 1735 1728 1651 1653 1667 1665 1722 1724 1738 1736 1652 1659 1666 1658 1691 1692 1697 1696 1723 1730 1737 1729 1653 1655 1669 1667 1724 1726 1740 1738 1654 1660 1668 1659 1692 1693 1698 1697 1725 1731 1739 1730 1661 1663 1677 1675 1732 1734 1748 1746 1662 1671 1676 1670 1694 1695 1700 1699 1733 1742 1747 1741 1663 1665 1679 1677 1734 1736 1750 1748 1664 1672 1678 1671 1695 1696 1701 1700 1735 1743 1749 1742 1665 1667 1681 1679 1736 1738 1752 1750 1666 1673 1680 1672 1696 1697 1702 1701 1737 1744 1751 1743 1667 1669 1683 1681 1738 1740 1754 1752 1668 1674 1682 1673 1697 1698 1703 1702 1739 1745 1753 1744 1704 1706 1720 1718 1775 1777 1791 1789 1705 1714 1719 1713 1755 1756 1761 1760 1776 1785 1790 1784 1706 1708 1722 1720 1777 1779 1793 1791 1707 1715 1721 1714 1756 1757 1762 1761 1778 1786 1792 1785 1708 1710 1724 1722 1779 1781 1795 1793 1709 1716 1723 1715 1757 1758 1763 1762 1780 1787 1794 1786 1710 1712 1726 1724 1781 1783 1797 1795 1711 1717 1725 1716 1758 1759 1764 1763 1782 1788 1796 1787 1718 1720 1734 1732 1789 1791 1805 1803 1719 1728 1733 1727 1760 1761 1766 1765 1790 1799 1804 1798 1720 1722 1736 1734 1791 1793 1807 1805 1721 1729 1735 1728 1761 1762 1767 1766 1792 1800 1806 1799 1722 1724 1738 1736 1793 1795 1809 1807 1723 1730 1737 1729 1762 1763 1768 1767 1794 1801 1808 1800 1724 1726 1740 1738 1795 1797 1811 1809 1725 1731 1739 1730 1763 1764 1769 1768 1796 1802 1810 1801 1732 1734 1748 1746 1803 1805 1819 1817 1733 1742 1747 1741 1765 1766 1771 1770 1804 1813 1818 1812 1734 1736 1750 1748 1805 1807 1821 1819 1735 1743 1749 1742 1766 1767 1772 1771 1806 1814 1820 1813 1736 1738 1752 1750 1807 1809 1823 1821 1737 1744 1751 1743 1767 1768 1773 1772 1808 1815 1822 1814 1738 1740 1754 1752 1809 1811 1825 1823 1739 1745 1753 1744 1768 1769 1774 1773 1810 1816 1824 1815 0 2 73 71 1 52 72 51 2 4 75 73 3 53 74 52 4 6 77 75 5 54 76 53 6 8 79 77 7 55 78 54 71 73 144 142 72 123 143 122 73 75 146 144 74 124 145 123 75 77 148 146 76 125 147 124 77 79 150 148 78 126 149 125 142 144 215 213 143 194 214 193 144 146 217 215 145 195 216 194 146 148 219 217 147 196 218 195 148 150 221 219 149 197 220 196 213 215 286 284 214 265 285 264 215 217 288 286 216 266 287 265 217 219 290 288 218 267 289 266 219 221 292 290 220 268 291 267 284 286 357 355 285 336 356 335 286 288 359 357 287 337 358 336 288 290 361 359 289 338 360 337 290 292 363 361 291 339 362 338 355 357 428 426 356 407 427 406 357 359 430 428 358 408 429 407 359 361 432 430 360 409 431 408 361 363 434 432 362 410 433 409 426 428 499 497 427 478 498 477 428 430 501 499 429 479 500 478 430 432 503 501 431 480 502 479 432 434 505 503 433 481 504 480 497 499 570 568 498 549 569 548 499 501 572 570 500 550 571 549 501 503 574 572 502 551 573 550 503 505 576 574 504 552 575 551 568 570 641 639 569 620 640 619 570 572 643 641 571 621 642 620 572 574 645 643 573 622 644 621 574 576 647 645 575 623 646 622 639 641 712 710 640 691 711 690 641 643 714 712 642 692 713 691 643 645 716 714 644 693 715 692 645 647 718 716 646 694 717 693 710 712 783 781 711 762 782 761 712 714 785 783 713 763 784 762 714 716 787 785 715 764 786 763 716 718 789 787 717 765 788 764 781 783 854 852 782 833 853 832 783 785 856 854 784 834 855 833 785 787 858 856 786 835 857 834 787 789 860 858 788 836 859 835 852 854 925 923 853 904 924 903 854 856 927 925 855 905 926 904 856 858 929 927 857 906 928 905 858 860 931 929 859 907 930 906 923 925 996 994 924 975 995 974 925 927 998 996 926 976 997 975 927 929 1000 998 928 977 999 976 929 931 1002 1000 930 978 1001 977 994 996 1067 1065 995 1046 1066 1045 996 998 1069 1067 997 1047 1068 1046 998 1000 1071 1069 999 1048 1070 1047 1000 1002 1073 1071 1001 1049 1072 1048 1065 1067 1138 1136 1066 1117 1137 1116 1067 1069 1140 1138 1068 1118 1139 1117 1069 1071 1142 1140 1070 1119 1141 1118 1071 1073 1144 1142 1072 1120 1143 1119 1136 1138 1209 1207 1137 1188 1208 1187 1138 1140 1211 1209 1139 1189 1210 1188 1140 1142 1213 1211 1141 1190 1212 1189 1142 1144 1215 1213 1143 1191 1214 1190 1207 1209 1280 1278 1208 1259 1279 1258 1209 1211 1282 1280 1210 1260 1281 1259 1211 1213 1284 1282 1212 1261 1283 1260 1213 1215 1286 1284 1214 1262 1285 1261 1278 1280 1351 1349 1279 1330 1350 1329 1280 1282 1353 1351 1281 1331 1352 1330 1282 1284 1355 1353 1283 1332 1354 1331 1284 1286 1357 1355 1285 1333 1356 1332 1349 1351 1422 1420 1350 1401 1421 1400 1351 1353 1424 1422 1352 1402 1423 1401 1353 1355 1426 1424 1354 1403 1425 1402 1355 1357 1428 1426 1356 1404 1427 1403 1420 1422 1493 1491 1421 1472 1492 1471 1422 1424 1495 1493 1423 1473 1494 1472 1424 1426 1497 1495 1425 1474 1496 1473 1426 1428 1499 1497 1427 1475 1498 1474 1491 1493 1564 1562 1492 1543 1563 1542 1493 1495 1566 1564 1494 1544 1565 1543 1495 1497 1568 1566 1496 1545 1567 1544 1497 1499 1570 1568 1498 1546 1569 1545 1562 1564 1635 1633 1563 1614 1634 1613 1564 1566 1637 1635 1565 1615 1636 1614 1566 1568 1639 1637 1567 1616 1638 1615 1568 1570 1641 1639 1569 1617 1640 1616 1633 1635 1706 1704 1634 1685 1705 1684 1635 1637 1708 1706 1636 1686 1707 1685 1637 1639 1710 1708 1638 1687 1709 1686 1639 1641 1712 1710 1640 1688 1711 1687 1704 1706 1777 1775 1705 1756 1776 1755 1706 1708 1779 1777 1707 1757 1778 1756 1708 1710 1781 1779 1709 1758 1780 1757 1710 1712 1783 1781 1711 1759 1782 1758 14 0 71 85 9 51 80 56 28 14 85 99 23 56 94 61 42 28 99 113 37 61 108 66 85 71 142 156 80 122 151 127 99 85 156 170 94 127 165 132 113 99 170 184 108 132 179 137 156 142 213 227 151 193 222 198 170 156 227 241 165 198 236 203 184 170 241 255 179 203 250 208 227 213 284 298 222 264 293 269 241 227 298 312 236 269 307 274 255 241 312 326 250 274 321 279 298 284 355 369 293 335 364 340 312 298 369 383 307 340 378 345 326 312 383 397 321 345 392 350 369 355 426 440 364 406 435 411 383 369 440 454 378 411 449 416 397 383 454 468 392 416 463 421 440 426 497 511 435 477 506 482 454 440 511 525 449 482 520 487 468 454 525 539 463 487 534 492 511 497 568 582 506 548 577 553 525 511 582 596 520 553 591 558 539 525 596 610 534 558 605 563 582 568 639 653 577 619 648 624 596 582 653 667 591 624 662 629 610 596 667 681 605 629 676 634 653 639 710 724 648 690 719 695 667 653 724 738 662 695 733 700 681 667 738 752 676 700 747 705 724 710 781 795 719 761 790 766 738 724 795 809 733 766 804 771 752 738 809 823 747 771 818 776 795 781 852 866 790 832 861 837 809 795 866 880 804 837 875 842 823 809 880 894 818 842 889 847 866 852 923 937 861 903 932 908 880 866 937 951 875 908 946 913 894 880 951 965 889 913 960 918 937 923 994 1008 932 974 1003 979 951 937 1008 1022 946 979 1017 984 965 951 1022 1036 960 984 1031 989 1008 994 1065 1079 1003 1045 1074 1050 1022 1008 1079 1093 1017 1050 1088 1055 1036 1022 1093 1107 1031 1055 1102 1060 1079 1065 1136 1150 1074 1116 1145 1121 1093 1079 1150 1164 1088 1121 1159 1126 1107 1093 1164 1178 1102 1126 1173 1131 1150 1136 1207 1221 1145 1187 1216 1192 1164 1150 1221 1235 1159 1192 1230 1197 1178 1164 1235 1249 1173 1197 1244 1202 1221 1207 1278 1292 1216 1258 1287 1263 1235 1221 1292 1306 1230 1263 1301 1268 1249 1235 1306 1320 1244 1268 1315 1273 1292 1278 1349 1363 1287 1329 1358 1334 1306 1292 1363 1377 1301 1334 1372 1339 1320 1306 1377 1391 1315 1339 1386 1344 1363 1349 1420 1434 1358 1400 1429 1405 1377 1363 1434 1448 1372 1405 1443 1410 1391 1377 1448 1462 1386 1410 1457 1415 1434 1420 1491 1505 1429 1471 1500 1476 1448 1434 1505 1519 1443 1476 1514 1481 1462 1448 1519 1533 1457 1481 1528 1486 1505 1491 1562 1576 1500 1542 1571 1547 1519 1505 1576 1590 1514 1547 1585 1552 1533 1519 1590 1604 1528 1552 1599 1557 1576 1562 1633 1647 1571 1613 1642 1618 1590 1576 1647 1661 1585 1618 1656 1623 1604 1590 1661 1675 1599 1623 1670 1628 1647 1633 1704 1718 1642 1684 1713 1689 1661 1647 1718 1732 1656 1689 1727 1694 1675 1661 1732 1746 1670 1694 1741 1699 1718 1704 1775 1789 1713 1755 1784 1760 1732 1718 1789 1803 1727 1760 1798 1765 1746 1732 1803 1817 1741 1765 1812 1770 0 2 16 14 1 10 15 9 2 4 18 16 3 11 17 10 4 6 20 18 5 12 19 11 6 8 22 20 7 13 21 12 14 16 30 28 15 24 29 23 16 18 32 30 17 25 31 24 18 20 34 32 19 26 33 25 20 22 36 34 21 27 35 26 28 30 44 42 29 38 43 37 30 32 46 44 31 39 45 38 32 34 48 46 33 40 47 39 34 36 50 48 35 41 49 40 1775 1777 1791 1789 1776 1785 1790 1784 1777 1779 1793 1791 1778 1786 1792 1785 1779 1781 1795 1793 1780 1787 1794 1786 1781 1783 1797 1795 1782 1788 1796 1787 1789 1791 1805 1803 1790 1799 1804 1798 1791 1793 1807 1805 1792 1800 1806 1799 1793 1795 1809 1807 1794 1801 1808 1800 1795 1797 1811 1809 1796 1802 1810 1801 1803 1805 1819 1817 1804 1813 1818 1812 1805 1807 1821 1819 1806 1814 1820 1813 1807 1809 1823 1821 1808 1815 1822 1814 1809 1811 1825 1823 1810 1816 1824 1815
        </DataArray>
        <DataArray type="Int32" Name="offsets" format="ascii">
 20 40 60 80 100 120 140 160 180 200 220 240 260 280 300 320 340 360 380 400 420 440 460 480 500 520 540 560 580 600 620 640 660 680 700 720 740 760 780 800 820 840 860 880 900 920 940 960 980 1000 1020 1040 1060 1080 1100 1120 1140 1160 1180 1200 1220 1240 1260 1280 1300 1320 1340 1360 1380 1400 1420 1440 1460 1480 1500 1520 1540 1560 1580 1600 1620 1640 1660 1680 1700 1720 1740 1760 1780 1800 1820 1840 1860 1880 1900 1920 1940 1960 1980 2000 2020 2040 2060 2080 2100 2120 2140 2160 2180 2200 2220 2240 2260 2280 2300 2320 2340 2360 2380 2400 2420 2440 2460 2480 2500 2520 2540 2560 2580 2600 2620 2640 2660 2680 2700 2720 2740 2760 2780 2800 2820 2840 2860 2880 2900 2920 2940 2960 2980 3000 3020 3040 3060 3080 3100 3120 3140 3160 3180 3200 3220 3240 3260 3280 3300 3320 3340 3360 3380 3400 3420 3440 3460 3480 3500 3520 3540 3560 3580 3600 3620 3640 3660 3680 3700 3720 3740 3760 3780 3800 3820 3840 3860 3880 3900 3920 3940 3960 3980 4000 4020 4040 4060 4080 4100 4120 4140 4160 4180 4200 4220 4240 4260 4280 4300 4320 4340 4360 4380 4400 4420 4440 4460 4480 4500 4520 4540 4560 4580 4600 4620 4640 4660 4680 4700 4720 4740 4760 4780 4800 4820 4840 4860 4880 4900 4920 4940 4960 4980 5000 5020 5040 5060 5080 5100 5120 5140 5160 5180 5200 5220 5240 5260 5280 5300 5320 5340 5360 5380 5400 5420 5440 5460 5480 5500 5520 5540 5560 5580 5600 5620 5640 5660 5680 5700 5720 5740 5760 5780 5800 5820 5840 5860 5880 5900 5920 5940 5960 5980 6000 6008 6016 6024 6032 6040 6048 6056 6064 6072 6080 6088 6096 6104 6112 6120 6128 6136 6144 6152 6160 6168 6176 6184 6192 6200 6208 6216 6224 6232 6240 6248 6256 6264 6272 6280 6288 6296 6304 6312 6320 6328 6336 6344 6352 6360 6368 6376 6384 6392 6400 6408 6416 6424 6432 6440 6448 6456 6464 6472 6480 6488 6496 6504 6512 6520 6528 6536 6544 6552 6560 6568 6576 6584 6592 6600 6608 6616 6624 6632 6640 6648 6656 6664 6672 6680 6688 6696 6704 6712 6720 6728 6736 6744 6752 6760 6768 6776 6784 6792 6800 6808 6816 6824 6832 6840 6848 6856 6864 6872 6880 6888 6896 6904 6912 6920 6928 6936 6944 6952 6960 6968 6976 6984 6992 7000 7008 7016 7024 7032 7040 7048 7056 7064 7072 7080 7088 7096 7104 7112 7120 7128 7136 7144 7152 7160 7168 7176 7184 7192 7200 7208 7216 7224 7232 7240 7248 7256 7264 7272 7280 7288 7296 7304 7312 7320 7328 7336 7344 7352 7360 7368 7376 7384 7392 7400 7408 7416 7424 7432 7440 7448 7456 7464 7472 7480 7488 7496 7504 7512 7520 7528 7536 7544 7552 7560 7568 7576 7584 7592
        </DataArray>
        <DataArray type="Int32" Name="types" FORMAT="ascii">
 25 25 25 25 25 25 25 25 25 25 25 25 25 25 25 25 25 25 25 25 25 25 25 25 25 25 25 25 25 25 25 25 25 25 25 25 25 25 25 25 25 25 25 25 25 25 25 25 25 25 25 25 25 25 25 25 25 25 25 25 25 25 25 25 25 25 25 25 25 25 25 25 25 25 25 25 25 25 25 25 25 25 25 25 25 25 25 25 25 25 25 25 25 25 25 25 25 25 25 25 25 25 25 25 25 25 25 25 25 25 25 25 25 25 25 25 25 25 25 25 25 25 25 25 25 25 25 25 25 25 25 25 25 25 25 25 25 25 25 25 25 25 25 25 25 25 25 25 25 25 25 25 25 25 25 25 25 25 25 25 25 25 25 25 25 25 25 25 25 25 25 25 25 25 25 25 25 25 25 25 25 25 25 25 25 25 25 25 25 25 25 25 25 25 25 25 25 25 25 25 25 25 25 25 25 25 25 25 25 25 25 25 25 25 25 25 25 25 25 25 25 25 25 25 25 25 25 25 25 25 25 25 25 25 25 25 25 25 25 25 25 25 25 25 25 25 25 25 25 25 25 25 25 25 25 25 25 25 25 25 25 25 25 25 25 25 25 25 25 25 25 25 25 25 25 25 25 25 25 25 25 25 25 25 25 25 25 25 25 25 25 25 25 25 25 25 25 25 25 25 23 23 23 23 23 23 23 23 23 23 23 23 23 23 23 23 23 23 23 23 23 23 23 23 23 23 23 23 23 23 23 23 23 23 23 23 23 23 23 23 23 23 23 23 23 23 23 23 23 23 23 23 23 23 23 23 23 23 23 23 23 23 23 23 23 23 23 23 23 23 23 23 23 23 23 23 23 23 23 23 23 23 23 23 23 23 23 23 23 23 23 23 23 23 23 23 23 23 23 23 23 23 23 23 23 23 23 23 23 23 23 23 23 23 23 23 23 23 23 23 23 23 23 23 23 23 23 23 23 23 23 23 23 23 23 23 23 23 23 23 23 23 23 23 23 23 23 23 23 23 23 23 23 23 23 23 23 23 23 23 23 23 23 23 23 23 23 23 23 23 23 23 23 23 23 23 23 23 23 23 23 23 23 23 23 23 23 23 23 23 23 23 23 23 23 23 23 23 23
        </DataArray>
      </Cells>
    </Piece>
  </UnstructuredGrid>
</VTKFile>
